H1 W36 N27
1.0
   8.9183705999999994    0.0000000000000000    0.0000000000000000
  -4.4591852999999997    7.7235354899999997    0.0000000000000000
   0.0000000000000000    0.0000000000000000   24.2330780600000004
W N H
36 27 1
direct
   0.1119302600000000    0.2226944500000000    0.4439741000000000 W
   0.1089697200000000    0.5522837400000000    0.4438231300000000 W
   0.1102677900000000    0.8872022400000000    0.4446319300000000 W
   0.4440975200000000    0.2226944500000000    0.4439741000000000 W
   0.4451305600000000    0.5569277800000000    0.4444461900000000 W
   0.4445309700000000    0.8897394000000000    0.4443906600000000 W
   0.7776504400000001    0.2219675500000000    0.4439936800000000 W
   0.7766473500000000    0.5522837400000000    0.4438231300000000 W
   0.7785417500000000    0.8897394000000000    0.4443906600000000 W
   0.2232028100000000    0.1130722800000000    0.5549377100000000 W
   0.2201655900000000    0.4431628400000000    0.5548849800000000 W
   0.2214559200000000    0.7805113400000000    0.5555973400000001 W
   0.5556617700000001    0.1117817900000000    0.5568698600000000 W
   0.5563305900000000    0.4431628400000000    0.5548849800000000 W
   0.5557478400000000    0.7781623300000000    0.5544676900000000 W
   0.8894533600000000    0.1117817900000000    0.5568698600000000 W
   0.8870999500000000    0.4408665600000000    0.5565812800000000 W
   0.8923887600000000    0.7805113400000000    0.5555973400000001 W
  -0.0008500600000000   -0.0002300800000000    0.3518395400000000 W
   0.0008158500000000    0.3335602600000000    0.3513498800000000 W
  -0.0002705100000000    0.6661256500000000    0.3516412700000000 W
   0.3339533000000000   -0.0002300800000000    0.3518395400000000 W
   0.3320949000000000    0.3308564800000000    0.3516395000000000 W
   0.3337127400000000    0.6667647000000000    0.3518081700000000 W
   0.6668279499999999    0.0003225700000000    0.3516615600000000 W
   0.6660777400000000    0.3335602600000000    0.3513498800000000 W
   0.6663852900000000    0.6667647000000000    0.3518081700000000 W
  -0.0001510400000000    0.0013171000000000    0.6502489000000000 W
   0.0049194100000000    0.3334591300000000    0.6503270900000000 W
   0.0001756300000000    0.6670179200000000    0.6487370300000000 W
   0.3348014700000000    0.0013171000000000    0.6502489000000000 W
   0.3392553600000000    0.3451774000000000    0.6422455100000000 W
   0.3320996700000000    0.6677922800000000    0.6480571000000001 W
   0.6696099700000000    0.0058866000000000    0.6497994900000000 W
   0.6618730500000000    0.3334591300000000    0.6503270900000000 W
   0.6690259400000000    0.6677922800000000    0.6480571000000001 W
  -0.0006844900000000    0.0014931100000000    0.5001125000000000 N
  -0.0030899300000000    0.3323101200000000    0.5000966200000000 N
  -0.0014071100000000    0.6638524400000000    0.5000367600000000 N
   0.3355109300000000    0.0014931100000000    0.5001125000000000 N
   0.3333105000000000    0.3332876600000000    0.4994700200000000 N
   0.3316263700000000    0.6667166500000000    0.4999891400000000 N
   0.6677598300000001    0.0021863200000000    0.5006879000000000 N
   0.6687333700000000    0.3323101200000000    0.5000966200000000 N
   0.6684236099999999    0.6667166500000000    0.4999891400000000 N
   0.2218951800000000    0.1104570300000000    0.3104901500000000 N
   0.2230841900000000    0.4453845100000000    0.3104828600000000 N
   0.2221052900000000    0.7779063899999999    0.3107459800000000 N
   0.5552421300000000    0.1103674100000000    0.3104120500000000 N
   0.5556336600000000    0.4453845100000000    0.3104828600000000 N
   0.5557129600000000    0.7780925800000000    0.3106306200000000 N
   0.8884586200000000    0.1103674100000000    0.3104120500000000 N
   0.8887865400000000    0.4442397400000000    0.3104119300000000 N
   0.8891344300000000    0.7779063899999999    0.3107459800000000 N
   0.1265442100000000    0.2151768500000000    0.6953398800000000 N
   0.1127226800000000    0.5553408500000000    0.6902372400000000 N
   0.1098268000000000    0.8863202700000000    0.6905296399999999 N
   0.4219659700000000    0.2151768500000000    0.6953398800000000 N
   0.4465331500000000    0.5597329700000000    0.6880201600000000 N
   0.4445125700000000    0.8884453800000000    0.6898107600000000 N
   0.7768221800000000    0.2203110300000000    0.6919356700000000 N
   0.7759515100000000    0.5553408500000000    0.6902372400000000 N
   0.7772661300000000    0.8884453800000000    0.6898107600000000 N
   0.2757668900000000    0.2182004400000000    0.7142571700000000 H
