H1 W36 N27
1.0
   8.9183705999999994    0.0000000000000000    0.0000000000000000
  -4.4591852999999997    7.7235354899999997    0.0000000000000000
   0.0000000000000000    0.0000000000000000   24.2330780600000004
W N H
36 27 1
direct
   0.1106939900000000    0.2220136700000000    0.4436998700000000 W
   0.1111489900000000    0.5556313100000000    0.4435537600000000 W
   0.1111489900000000    0.8888510100000000    0.4435537600000000 W
   0.4442568000000000    0.2218469400000000    0.4436961900000000 W
   0.4442568000000000    0.5557432000000000    0.4436961900000000 W
   0.4443686900000000    0.8888510100000000    0.4435537600000000 W
   0.7779863299999999    0.2220136700000000    0.4436998700000000 W
   0.7781530600000000    0.5557432000000000    0.4436961900000000 W
   0.7779863299999999    0.8893060100000000    0.4436998700000000 W
   0.2224093000000000    0.1109479100000000    0.5552914900000000 W
   0.2224093000000000    0.4447947200000000    0.5552914900000000 W
   0.2222222200000000    0.7777777800000000    0.5554680000000000 W
   0.5552052800000000    0.1109479100000000    0.5552914900000000 W
   0.5555555599999999    0.4444444400000000    0.5551264900000000 W
   0.5552052800000000    0.7775907000000000    0.5552914900000000 W
   0.8888888900000000    0.1111111100000000    0.5552425100000000 W
   0.8890520900000000    0.4447947200000000    0.5552914900000000 W
   0.8890520900000000    0.7775907000000000    0.5552914900000000 W
   0.0000127900000000   -0.0000127900000000    0.3510061900000000 W
   0.0000127900000000    0.3333589100000000    0.3510061900000000 W
  -0.0000135800000000    0.6666598800000000    0.3509652100000000 W
   0.3333401200000000    0.0000135800000000    0.3509652100000000 W
   0.3333264800000000    0.3333299100000000    0.3510233200000000 W
   0.3333401200000000    0.6666598800000000    0.3509652100000000 W
   0.6666410900000000   -0.0000127900000000    0.3510061900000000 W
   0.6666700900000000    0.3333299100000000    0.3510233200000000 W
   0.6666700900000000    0.6666735200000000    0.3510233200000000 W
  -0.0000580700000000    0.0000580700000000    0.6480199300000000 W
  -0.0000580700000000    0.3332172000000000    0.6480199300000000 W
   0.0000896000000000    0.6667114700000000    0.6481049800000001 W
   0.3332885300000000   -0.0000896000000000    0.6481049800000001 W
   0.3332690000000000    0.3333011600000000    0.6476969900000000 W
   0.3332885300000000    0.6667114700000000    0.6481049800000001 W
   0.6667828000000000    0.0000580700000000    0.6480199300000000 W
   0.6666988400000000    0.3333011600000000    0.6476969900000000 W
   0.6666988400000000    0.6667310000000000    0.6476969900000000 W
   0.0001956600000000   -0.0001956600000000    0.4995120500000000 N
   0.0001956600000000    0.3337246500000000    0.4995120500000000 N
   0.0004726600000000    0.6669030000000000    0.4994438000000000 N
   0.3330970000000000   -0.0004726600000000    0.4994438000000000 N
   0.3331119000000000    0.3332226200000000    0.4994641100000000 N
   0.3330970000000000    0.6669030000000000    0.4994438000000000 N
   0.6662753500000000   -0.0001956600000000    0.4995120500000000 N
   0.6667773800000000    0.3332226200000000    0.4994641100000000 N
   0.6667773800000000    0.6668881000000000    0.4994641100000000 N
   0.2221967400000000    0.1112360900000000    0.3098589300000000 N
   0.2221967400000000    0.4442939800000000    0.3098589300000000 N
   0.2222222200000000    0.7777777800000000    0.3097771700000000 N
   0.5557060200000000    0.1112360900000000    0.3098589300000000 N
   0.5555555599999999    0.4444444400000000    0.3099450600000000 N
   0.5557060200000000    0.7778032600000000    0.3098589300000000 N
   0.8888888900000000    0.1111111100000000    0.3098482200000000 N
   0.8887639100000000    0.4442939800000000    0.3098589300000000 N
   0.8887639100000000    0.7778032600000000    0.3098589300000000 N
   0.1114496800000000    0.2223915100000000    0.6890468400000000 N
   0.1110003500000000    0.5553340400000000    0.6892229200000000 N
   0.1110003500000000    0.8889996500000000    0.6892229200000000 N
   0.4447879000000000    0.2229091400000000    0.6891240600000000 N
   0.4447879000000000    0.5552121000000000    0.6891240600000000 N
   0.4446659600000000    0.8889996500000000    0.6892229200000000 N
   0.7776084900000000    0.2223915100000000    0.6890468400000000 N
   0.7770908600000000    0.5552121000000000    0.6891240600000000 N
   0.7776084900000000    0.8885503200000000    0.6890468400000000 N
   0.5555555500000000    0.4444444500000000    0.7649978200000001 H
