H1 W36 N27
1.0
   8.9183705999999994    0.0000000000000000    0.0000000000000000
  -4.4591852999999997    7.7235354899999997    0.0000000000000000
   0.0000000000000000    0.0000000000000000   24.2330780600000004
W N H
36 27 1
direct
   0.1097360800000000    0.2215347100000000    0.4444601600000000 W
   0.1143429800000000    0.5576807400000000    0.4438399500000000 W
   0.1143429800000000    0.8899955800000000    0.4438399500000000 W
   0.4439460900000000    0.2225393400000000    0.4439862600000000 W
   0.4439460900000000    0.5547400900000000    0.4439862600000000 W
   0.4446794400000000    0.8890063900000000    0.4440050200000000 W
   0.7769079200000000    0.2221188400000000    0.4444088800000000 W
   0.7794426900000000    0.5563880100000000    0.4446292500000000 W
   0.7769079200000000    0.8881224100000000    0.4444088800000000 W
   0.2234855600000000    0.1103253300000000    0.5548873300000000 W
   0.2234855600000000    0.4464935600000000    0.5548873300000000 W
   0.2257450900000000    0.7795392100000000    0.5565819300000000 W
   0.5548574500000000    0.1109915700000000    0.5568784200000000 W
   0.5535913900000000    0.4434623600000000    0.5549291300000000 W
   0.5548574500000000    0.7771992100000000    0.5568784200000000 W
   0.8885009900000000    0.1109171600000000    0.5544866300000000 W
   0.8861851600000000    0.4452390400000000    0.5556029600000000 W
   0.8861851600000000    0.7742794400000000    0.5556029600000000 W
  -0.0001128100000000    0.0003118000000000    0.3518064000000000 W
  -0.0001128100000000    0.3329087300000000    0.3518064000000000 W
   0.0005360900000000    0.6669347100000000    0.3516286100000000 W
   0.3331322400000000    0.0006054500000000    0.3513274600000000 W
   0.3357484300000000    0.3345408800000000    0.3516246600000000 W
   0.3331322400000000    0.6658601200000001    0.3513274600000000 W
   0.6663898000000000   -0.0001384300000000    0.3516503800000000 W
   0.6669079100000000    0.3327783800000000    0.3518307200000000 W
   0.6669079100000000    0.6674628600000000    0.3518307200000000 W
  -0.0010773300000000   -0.0023360000000000    0.6480312000000000 W
  -0.0010773300000000    0.3345920000000000    0.6480312000000000 W
  -0.0003324600000000    0.6665004400000000    0.6487253700000000 W
   0.3331995800000000    0.0048077400000000    0.6503144400000000 W
   0.3214821300000000    0.3274077300000000    0.6422510700000000 W
   0.3331995800000000    0.6617251700000000    0.6503144400000000 W
   0.6607475600000000   -0.0029595600000000    0.6498039100000000 W
   0.6653440200000000    0.3319026000000000    0.6502171800000000 W
   0.6653440200000000    0.6667747400000000    0.6502171800000000 W
  -0.0000622600000000   -0.0017493100000000    0.4999985300000000 N
  -0.0000622600000000    0.3350203800000000    0.4999985300000000 N
   0.0027903100000000    0.6680618200000000    0.5000272500000000 N
   0.3343614300000000   -0.0020822700000000    0.5000976300000000 N
   0.3333761300000000    0.3333547300000000    0.4994626900000000 N
   0.3343614300000000    0.6697770300000000    0.5000976300000000 N
   0.6644638600000000   -0.0011014100000000    0.5006992200000000 N
   0.6651738400000000    0.3311369600000000    0.5001140500000000 N
   0.6651738400000000    0.6673702100000000    0.5001140500000000 N
   0.2212628100000000    0.1110185500000000    0.3104891100000000 N
   0.2212628100000000    0.4435775900000000    0.3104891100000000 N
   0.2224435600000000    0.7778884400000000    0.3104014100000000 N
   0.5563295800000000    0.1114486100000000    0.3104022300000000 N
   0.5561819400000000    0.4447576400000000    0.3105003500000000 N
   0.5563295800000000    0.7782143100000000    0.3104022300000000 N
   0.8886016100000000    0.1109674700000000    0.3106438500000000 N
   0.8887722000000000    0.4445683600000000    0.3107562400000000 N
   0.8887722000000000    0.7775371700000000    0.3107562400000000 N
   0.1069741400000000    0.2201537400000000    0.6880291700000000 N
   0.1113125400000000    0.5539218800000000    0.6902513400000000 N
   0.1113125400000000    0.8907240000000000    0.6902513400000000 N
   0.4515639100000000    0.2446951000000000    0.6953360400000000 N
   0.4515639100000000    0.5402021500000000    0.6953360400000000 N
   0.4463654200000000    0.8898493800000000    0.6919265500000000 N
   0.7782394600000000    0.2221832000000000    0.6898114100000000 N
   0.7803031400000000    0.5568182400000000    0.6905527299999999 N
   0.7782394600000000    0.8893896000000000    0.6898114100000000 N
   0.4485325300000000    0.3909329300000000    0.7142534600000000 H
