H1 W45 N27
1.0
   8.8091896799999994    0.0000000000000000   -0.0322629300000000
  -0.0041149800000000    8.8105912800000006    0.0003707700000000
   0.0000000000000000    0.0000000000000000   23.8006870200000016
W N H
45 27 1
direct
   0.1022717600000000    0.2391614000000000    0.3316023000000001 W
   0.1022717600000000    0.5724947333333333    0.3316023000000001 W
   0.1022717600000000    0.9058280666666666    0.3316023000000001 W
   0.4356050933333333    0.2391614000000000    0.3316023000000001 W
   0.4356050933333332    0.5724947333333333    0.3316023000000000 W
   0.4356050933333333    0.9058280666666666    0.3316023000000001 W
   0.7689384266666666    0.2391614000000000    0.3316023000000000 W
   0.7689384266666666    0.5724947333333333    0.3316023000000000 W
   0.7689384266666666    0.9058280666666666    0.3316023000000001 W
   0.1054952333333333    0.2391229000000000    0.6683962100000000 W
   0.1054952333333333    0.5724562333333333    0.6683962100000000 W
   0.1054952333333333    0.9057895666666665    0.6683962100000000 W
   0.4388285666666666    0.2391229000000000    0.6683962100000000 W
   0.4388285666666665    0.5724562333333333    0.6683962100000000 W
   0.4388285666666666    0.9057895666666665    0.6683962099999999 W
   0.7721619000000000    0.2391229000000000    0.6683962099999999 W
   0.7721618999999998    0.5724562333333333    0.6683962100000000 W
   0.7721618999999998    0.9057895666666665    0.6683962100000000 W
   0.2714231800000000    0.0725125600000000    0.5883117700000000 W
   0.2714231800000000    0.4058458933333333    0.5883117700000000 W
   0.2714231800000000    0.7391792266666667    0.5883117700000001 W
   0.6047565133333334    0.0725125600000000    0.5883117700000001 W
   0.6047565133333334    0.4058458933333333    0.5883117700000000 W
   0.6047565133333334    0.7391792266666667    0.5883117700000000 W
   0.9380898466666666    0.0725125600000000    0.5883117700000000 W
   0.9380898466666665    0.4058458933333333    0.5883117700000001 W
   0.9380898466666665    0.7391792266666667    0.5883117700000000 W
   0.2697508666666666    0.0724896233333333    0.4116895200000001 W
   0.2697508666666666    0.4058229566666666    0.4116895200000000 W
   0.2697508666666666    0.7391562900000000    0.4116895200000001 W
   0.6030842000000000    0.0724896233333333    0.4116895200000000 W
   0.6030842000000000    0.4058229566666666    0.4116895200000000 W
   0.6030842000000000    0.7391562900000000    0.4116895200000000 W
   0.9364175333333332    0.0724896233333333    0.4116895200000000 W
   0.9364175333333331    0.4058229566666666    0.4116895200000001 W
   0.9364175333333331    0.7391562900000000    0.4116895200000000 W
   0.1038999333333333    0.2391429300000000    0.5000090400000000 W
   0.1038999333333333    0.5724762633333333    0.5000090400000000 W
   0.1038999333333333    0.9058095966666667    0.5000090400000001 W
   0.4372332666666666    0.2391429300000000    0.5000090400000000 W
   0.4372332666666666    0.5724762633333333    0.5000090400000000 W
   0.4372332666666666    0.9058095966666667    0.5000090400000000 W
   0.7705665999999999    0.2391429300000000    0.5000090400000000 W
   0.7705665999999999    0.5724762633333333    0.5000090400000001 W
   0.7705665999999999    0.9058095966666667    0.5000090400000000 W
   0.2723241233333333    0.0724647300000000    0.6829998499999999 N
   0.2723241233333333    0.4057980633333333    0.6829998500000000 N
   0.2723241233333333    0.7391313966666666    0.6829998499999999 N
   0.6056574566666666    0.0724647300000000    0.6829998500000000 N
   0.6056574566666666    0.4057980633333333    0.6829998499999999 N
   0.6056574566666665    0.7391313966666666    0.6829998499999999 N
   0.9389907899999999    0.0724647300000000    0.6829998500000000 N
   0.9389907899999997    0.4057980633333333    0.6829998499999999 N
   0.9389907899999996    0.7391313966666666    0.6829998500000000 N
   0.2687913600000000    0.0725056000000000    0.3169969900000000 N
   0.2687913600000000    0.4058389333333333    0.3169969900000000 N
   0.2687913600000000    0.7391722666666666    0.3169969900000000 N
   0.6021246933333333    0.0725056000000000    0.3169969900000000 N
   0.6021246933333333    0.4058389333333333    0.3169969900000000 N
   0.6021246933333334    0.7391722666666666    0.3169969900000000 N
   0.9354580266666666    0.0725056000000000    0.3169969900000000 N
   0.9354580266666667    0.4058389333333333    0.3169969900000000 N
   0.9354580266666666    0.7391722666666666    0.3169969900000000 N
   0.2705685433333332    0.0724902633333333    0.4999943100000000 N
   0.2705685433333332    0.4058235966666667    0.4999943099999999 N
   0.2705685433333333    0.7391569300000000    0.4999943100000000 N
   0.6039018766666666    0.0724902633333333    0.4999943100000000 N
   0.6039018766666665    0.4058235966666667    0.4999943099999999 N
   0.6039018766666666    0.7391569300000000    0.4999943099999999 N
   0.9372352099999999    0.0724902633333333    0.4999943100000000 N
   0.9372352099999999    0.4058235966666667    0.4999943100000000 N
   0.9372352099999998    0.7391569300000000    0.4999943100000000 N
   0.2728955758972572    0.4057934811770603    0.7292123034518898 H
