W4 N3
1.0
   2.9727901999999999    0.0000000000000000    0.0000000000000000
  -1.4863951000000000    2.5745118300000001    0.0000000000000000
   0.0000000000000000    0.0000000000000000   24.2330780600000004
W N
4 3
direct
   0.3333333300000000    0.6666666700000000    0.4440712300000000 W
   0.6666666700000000    0.3333333300000000    0.5559207900000001 W
   0.0000000000000000    0.0000000000000000    0.3514499900000000 W
   0.0000000000000000    0.0000000000000000    0.6485525500000000 W
   0.0000000000000000    0.0000000000000000    0.4999886800000000 N
   0.6666666700000000    0.3333333300000000    0.3104183700000000 N
   0.3333333300000000    0.6666666700000000    0.6895983900000000 N
