H1 W36 N18
1.0
   8.8135064100000005    0.0000000000000000   -0.6873464400000000
  -0.0075723000000000    8.8275280199999990   -0.4840591800000000
   0.0000000000000000    0.0000000000000000   21.3095355700000013
W N H
36 18 1
direct
   0.1410065500000000    0.1488297000000000    0.4577938200000000 W
   0.1410065500000000    0.4821630333333333    0.4577938200000000 W
   0.1410065500000000    0.8154963666666667    0.4577938200000000 W
   0.4743398833333334    0.1488297000000000    0.4577938199999999 W
   0.4743398833333333    0.4821630333333333    0.4577938199999999 W
   0.4743398833333334    0.8154963666666667    0.4577938200000000 W
   0.8076732166666667    0.1488297000000000    0.4577938200000000 W
   0.8076732166666667    0.4821630333333333    0.4577938200000000 W
   0.8076732166666666    0.8154963666666667    0.4577938200000000 W
   0.1730587500000000    0.1712703300000000    0.6321090299999998 W
   0.1730587500000000    0.5046036633333334    0.6321090300000000 W
   0.1730587500000000    0.8379369966666667    0.6321090300000000 W
   0.5063920833333332    0.1712703300000000    0.6321090300000000 W
   0.5063920833333333    0.5046036633333334    0.6321090299999998 W
   0.5063920833333333    0.8379369966666667    0.6321090300000000 W
   0.8397254166666666    0.1712703300000000    0.6321090299999998 W
   0.8397254166666667    0.5046036633333334    0.6321090300000000 W
   0.8397254166666666    0.8379369966666667    0.6321090300000001 W
   0.2905366166666667    0.3034751933333333    0.3678865600000000 W
   0.2905366166666667    0.6368085266666667    0.3678865600000000 W
   0.2905366166666667    0.9701418600000000    0.3678865600000000 W
   0.6238699500000000    0.3034751933333333    0.3678865600000000 W
   0.6238699499999999    0.6368085266666667    0.3678865600000000 W
   0.6238699500000000    0.9701418600000000    0.3678865599999999 W
   0.9572032833333333    0.3034751933333333    0.3678865600000000 W
   0.9572032833333334    0.6368085266666667    0.3678865600000000 W
   0.9572032833333334    0.9701418600000000    0.3678865600000000 W
   0.3233625033333333    0.3264831833333334    0.5421842700000000 W
   0.3233625033333333    0.6598165166666667    0.5421842700000000 W
   0.3233625033333333    0.9931498500000000    0.5421842700000000 W
   0.6566958366666666    0.3264831833333334    0.5421842699999999 W
   0.6566958366666666    0.6598165166666667    0.5421842700000000 W
   0.6566958366666666    0.9931498500000000    0.5421842700000000 W
   0.9900291700000000    0.3264831833333334    0.5421842699999999 W
   0.9900291700000001    0.6598165166666667    0.5421842700000000 W
   0.9900291700000000    0.9931498500000000    0.5421842700000000 W
   0.1211538533333333    0.1348914433333334    0.3528516500000000 N
   0.1211538533333333    0.4682247766666667    0.3528516500000001 N
   0.1211538533333333    0.8015581100000000    0.3528516500000000 N
   0.4544871866666667    0.1348914433333334    0.3528516500000000 N
   0.4544871866666667    0.4682247766666667    0.3528516500000001 N
   0.4544871866666667    0.8015581100000000    0.3528516500000000 N
   0.7878205200000000    0.1348914433333334    0.3528516500000000 N
   0.7878205200000000    0.4682247766666667    0.3528516500000000 N
   0.7878205200000000    0.8015581100000000    0.3528516500000000 N
   0.0092703900000000    0.0066681500000000    0.6471746700000000 N
   0.0092703900000000    0.3400014833333333    0.6471746700000000 N
   0.0092703900000000    0.6733348166666666    0.6471746700000001 N
   0.3426037233333333    0.0066681500000000    0.6471746700000000 N
   0.3426037233333333    0.3400014833333333    0.6471746699999998 N
   0.3426037233333333    0.6733348166666666    0.6471746700000000 N
   0.6759370566666666    0.0066681500000000    0.6471746700000000 N
   0.6759370566666667    0.3400014833333333    0.6471746700000000 N
   0.6759370566666666    0.6733348166666666    0.6471746700000000 N
   0.2666452581422809    0.2618272294552877    0.6961676185766590 H
