H1 W36 N18
1.0
   8.8135064100000005    0.0000000000000000   -0.6873464400000000
  -0.0075723000000000    8.8275280200000008   -0.4840591800000000
   0.0000000000000000    0.0000000000000000   21.3095355700000013
W N H
36 18 1
direct
   0.1386510500000000    0.1466393800000000    0.4568112400000000 W
   0.1385746600000000    0.4803145400000000    0.4572596000000000 W
   0.1386702400000000    0.8139682499999999    0.4568829300000000 W
   0.4723689100000000    0.1465336100000000    0.4572538400000000 W
   0.4728797000000000    0.4806976200000000    0.4593454300000000 W
   0.4723971600000000    0.8140131800000000    0.4573146700000000 W
   0.8060049100000000    0.1466511600000000    0.4568862600000000 W
   0.8060923400000000    0.4803562300000000    0.4573123100000000 W
   0.8060272700000000    0.8139988400000000    0.4569893600000000 W
   0.1706188700000000    0.1687659200000000    0.6324160599999999 W
   0.1716774500000000    0.5028634500000000    0.6318521200000000 W
   0.1705184900000000    0.8370497000000000    0.6324416600000000 W
   0.5046766100000000    0.1698214600000000    0.6318545600000000 W
   0.5050194700000000    0.5031318200000000    0.6327628000000000 W
   0.5046500600000000    0.8358196800000000    0.6318850900000000 W
   0.8388970600000000    0.1686211100000000    0.6324392100000000 W
   0.8376620700000000    0.5027914999999999    0.6318950700000000 W
   0.8390948499999999    0.8372314300000000    0.6324229900000000 W
   0.2898290400000000    0.3028012400000000    0.3678003200000000 W
   0.2897917200000000    0.6354288000000000    0.3678721900000000 W
   0.2890292700000000    0.9690386600000001    0.3672596100000000 W
   0.6224457400000000    0.3027702600000000    0.3678692500000000 W
   0.6225394100000000    0.6354866500000000    0.3678724200000000 W
   0.6229186600000000    0.9690340700000000    0.3673403000000000 W
   0.9560260600000000    0.3020315200000000    0.3672594200000000 W
   0.9560238500000000    0.6359459800000000    0.3673330800000000 W
   0.9559152100000000    0.9689698900000000    0.3668597300000000 W
   0.3199675100000000    0.3230879400000000    0.5428668900000000 W
   0.3198235300000000    0.6595690400000001    0.5428990900000000 W
   0.3209819400000000    0.9912212000000000    0.5423275100000000 W
   0.6564376900000000    0.3229663800000000    0.5429026400000000 W
   0.6565177500000000    0.6596296300000000    0.5430385100000000 W
   0.6549907100000000    0.9912003100000000    0.5423375300000000 W
   0.9880450700000000    0.3241717200000000    0.5423302300000000 W
   0.9879998400000000    0.6582010000000000    0.5423374900000000 W
   0.9880798100000000    0.9912827700000000    0.5421327000000000 W
   0.1203335800000000    0.1341535800000000    0.3525787600000000 N
   0.1197912500000000    0.4671601800000000    0.3531283900000000 N
   0.1202755300000000    0.8000913700000000    0.3526826600000000 N
   0.4533459900000000    0.1336117400000000    0.3531267700000000 N
   0.4536844900000000    0.4674034100000000    0.3546348900000000 N
   0.4533647800000000    0.8008162400000000    0.3532434300000000 N
   0.7862466000000000    0.1341134400000000    0.3526826400000000 N
   0.7870296200000000    0.4671438900000000    0.3532333300000000 N
   0.7863120600000000    0.8001645400000000    0.3526495600000000 N
   0.0077020400000000    0.0049853300000000    0.6473200099999999 N
   0.0074064800000000    0.3383979900000000    0.6466195600000000 N
   0.0073755900000000    0.6710885700000000    0.6466325800000000 N
   0.3410455900000000    0.0047600200000000    0.6466127600000000 N
   0.3387888300000000    0.3362062800000000    0.6455513899999999 N
   0.3387480900000000    0.6730558400000000    0.6455161200000000 N
   0.6737394300000000    0.0047302500000000    0.6466287600000000 N
   0.6756696900000000    0.3361102300000000    0.6455121000000000 N
   0.6758792400000000    0.6732721400000000    0.6456979100000000 N
   0.5202270400000000    0.5136849200000000    0.7143900700000000 H
