H1 W36 N18
1.0
   8.8135064100000005    0.0000000000000000   -0.6873464400000000
  -0.0075723000000000    8.8275280200000008   -0.4840591800000000
   0.0000000000000000    0.0000000000000000   21.3095355700000013
W N H
36 18 1
direct
   0.1436417800000000    0.1469095500000000    0.4572298100000000 W
   0.1438728200000000    0.4809825800000000    0.4591751200000000 W
   0.1436095800000000    0.8144025400000000    0.4572608300000000 W
   0.4770471600000000    0.1470465800000000    0.4569142600000000 W
   0.4772057400000000    0.4806827600000000    0.4571505900000000 W
   0.4770403200000000    0.8142390700000000    0.4569533800000000 W
   0.8098028400000000    0.1468717000000000    0.4569212800000000 W
   0.8096673000000000    0.4807180700000000    0.4571177700000000 W
   0.8098006200000000    0.8143038300000000    0.4569444300000000 W
   0.1762949600000000    0.1709428200000000    0.6318825600000000 W
   0.1763944000000000    0.5039417100000000    0.6325301800000001 W
   0.1762596000000000    0.8369788800000000    0.6319389600000000 W
   0.5107519900000000    0.1698314800000000    0.6324693500000000 W
   0.5093920700000000    0.5038327100000000    0.6320833800000000 W
   0.5107164199999999    0.8382430800000000    0.6324722600000000 W
   0.8422075600000000    0.1697396100000000    0.6324365000000000 W
   0.8432970400000001    0.5039101800000000    0.6317534200000000 W
   0.8421862700000000    0.8383050300000000    0.6325029200000000 W
   0.2931102000000000    0.3025397100000000    0.3676495400000000 W
   0.2931529000000000    0.6353101500000000    0.3676870200000000 W
   0.2936839400000000    0.9689092300000000    0.3672925100000000 W
   0.6266266000000000    0.3019229000000000    0.3671880400000000 W
   0.6267195500000000    0.6358164900000000    0.3672429400000000 W
   0.6266874600000000    0.9688258800000000    0.3669276200000000 W
   0.9605628000000000    0.3026106200000000    0.3677203200000000 W
   0.9604741100000000    0.6352873000000000    0.3677156800000000 W
   0.9597008100000000    0.9688629300000000    0.3672640800000000 W
   0.3279245800000000    0.3238516600000000    0.5428151600000000 W
   0.3279300100000000    0.6602193900000000    0.5428689500000000 W
   0.3264715400000000    0.9919294700000000    0.5424055800000001 W
   0.6594009300000000    0.3250315100000000    0.5422780500000000 W
   0.6593824000000000    0.6589029400000000    0.5423484100000000 W
   0.6595396800000000    0.9919624200000000    0.5422506499999999 W
   0.9912835100000000    0.3237065100000000    0.5426704600000000 W
   0.9912536199999999    0.6604271600000000    0.5427218100000000 W
   0.9925197000000000    0.9919608300000000    0.5424150300000000 W
   0.1240162300000000    0.1333591400000000    0.3531115000000000 N
   0.1243352000000000    0.4672402000000000    0.3544087700000000 N
   0.1240822300000000    0.8006827600000000    0.3531901100000000 N
   0.4569865300000000    0.1339421200000000    0.3526444300000000 N
   0.4576378300000000    0.4670357600000000    0.3530091700000000 N
   0.4569930300000000    0.7999478900000000    0.3527134400000000 N
   0.7910412600000000    0.1340509700000000    0.3526809800000000 N
   0.7905112200000000    0.4669547700000000    0.3530440100000000 N
   0.7910464699999999    0.7999092100000000    0.3526923400000000 N
   0.0128272700000000    0.0058790300000000    0.6467546100000000 N
   0.0104249600000000    0.3373650400000000    0.6452034000000000 N
   0.0104754100000000    0.6740894500000000    0.6452904400000000 N
   0.3454235100000000    0.0059363300000000    0.6466930700000000 N
   0.3473017400000000    0.3373115300000000    0.6455419200000000 N
   0.3474126300000000    0.6742456600000000    0.6455888500000000 N
   0.6793080500000001    0.0060080200000000    0.6475765000000000 N
   0.6791254100000000    0.3395969900000000    0.6465375100000000 N
   0.6791283100000000    0.6721920200000000    0.6466154000000000 N
   0.1913067700000000    0.5147834300000000    0.7140995500000000 H
