H1 W36 N18
1.0
   8.8135064100000005    0.0000000000000000   -0.6873464400000000
  -0.0075723000000000    8.8275280200000008   -0.4840591800000000
   0.0000000000000000    0.0000000000000000   21.3095355700000013
W N H
36 18 1
direct
   0.1408494100000000    0.1516349100000000    0.4591468300000000 W
   0.1405000200000000    0.4850966200000000    0.4571878600000000 W
   0.1404663900000000    0.8176068900000000    0.4571348700000000 W
   0.4743166300000000    0.1514280800000000    0.4572205900000000 W
   0.4741317700000000    0.4849096200000000    0.4568982800000000 W
   0.4742104000000000    0.8176229300000000    0.4569197300000000 W
   0.8066960200000000    0.1514147700000000    0.4572279700000000 W
   0.8067542200000000    0.4849579000000000    0.4568973100000000 W
   0.8067203200000000    0.8176312400000000    0.4569079400000000 W
   0.1735279900000000    0.1755062100000000    0.6324676500000000 W
   0.1733914300000000    0.5080028400000000    0.6318124100000000 W
   0.1733730500000000    0.8420985300000000    0.6317958600000000 W
   0.5064095000000000    0.1750437500000000    0.6318033400000000 W
   0.5077116100000000    0.5093842900000000    0.6324538900000000 W
   0.5076083000000000    0.8409504500000000    0.6325074000000001 W
   0.8403562900000000    0.1750957800000000    0.6318271800000000 W
   0.8392528200000000    0.5094219200000000    0.6324675900000000 W
   0.8393839500000000    0.8409529500000000    0.6325428600000000 W
   0.2900819600000000    0.3053569700000000    0.3677243200000000 W
   0.2905971600000000    0.6389829500000000    0.3672163500000000 W
   0.2901026300000000    0.9726388400000000    0.3677160800000000 W
   0.6236836300000000    0.3059075000000000    0.3672835400000000 W
   0.6235945300000000    0.6388989000000000    0.3667937700000000 W
   0.6236279600000000    0.9720438200000000    0.3672129100000000 W
   0.9573745700000000    0.3053778000000000    0.3677288100000000 W
   0.9566912900000000    0.6389281400000000    0.3672221100000000 W
   0.9573560800000001    0.9726457900000000    0.3676880200000000 W
   0.3248417500000000    0.3312770200000000    0.5427580200000000 W
   0.3235150200000000    0.6628950800000000    0.5423214700000000 W
   0.3249612700000000    0.9947376400000000    0.5427470100000000 W
   0.6565295400000000    0.3300838500000000    0.5424472200000000 W
   0.6564931400000000    0.6628562500000000    0.5422939000000000 W
   0.6565528300000000    0.9960164900000000    0.5423295800000000 W
   0.9882983600000000    0.3313605100000000    0.5427445000000000 W
   0.9894992000000000    0.6629620300000000    0.5423432800000000 W
   0.9882809000000000    0.9948152000000000    0.5427986700000000 W
   0.1212141700000000    0.1373205700000000    0.3543827700000000 N
   0.1209906100000000    0.4706141500000000    0.3530201200000000 N
   0.1209637300000000    0.8034307500000000    0.3529877100000000 N
   0.4546041700000000    0.1371454000000000    0.3531327600000000 N
   0.4539166500000000    0.4699934000000000    0.3527130500000000 N
   0.4539372600000000    0.8040047500000000    0.3526071100000000 N
   0.7873901500000000    0.1371421600000000    0.3531174800000000 N
   0.7879121400000000    0.4700020700000000    0.3526929700000000 N
   0.7878675000000001    0.8040052000000000    0.3525914500000000 N
   0.0075530100000000    0.0085101300000000    0.6455281700000000 N
   0.0074352700000000    0.3452793800000000    0.6453673100000000 N
   0.0098753300000000    0.6770457400000000    0.6466564400000000 N
   0.3443335600000000    0.0084786300000000    0.6453985500000000 N
   0.3444456200000000    0.3453640200000000    0.6453488800000000 N
   0.3423788900000000    0.6770100900000000    0.6466270100000000 N
   0.6761730300000000    0.0106489800000000    0.6466916500000000 N
   0.6761491300000000    0.3433178900000000    0.6466863600000000 N
   0.6763601200000000    0.6772419800000000    0.6476638500000000 N
   0.1892931900000000    0.1876550500000000    0.7140933400000000 H
