H1 W36 N18
1.0
   8.8135064100000005    0.0000000000000000   -0.6873464400000000
  -0.0075723000000000    8.8275280200000008   -0.4840591800000000
   0.0000000000000000    0.0000000000000000   21.3095355700000013
W N H
36 18 1
direct
   0.1441728700000000    0.1497425800000000    0.4595095900000000 W
   0.1436893100000000    0.4839012400000000    0.4571396100000000 W
   0.1437636700000000    0.8151245100000000    0.4571428700000000 W
   0.4779290500000000    0.1494766300000000    0.4574729700000000 W
   0.4752123700000000    0.4813247300000000    0.4560593500000000 W
   0.4752829800000000    0.8174136300000000    0.4560319700000000 W
   0.8095073400000000    0.1494961000000000    0.4574948000000000 W
   0.8115301400000000    0.4814508900000000    0.4561062600000000 W
   0.8115831700000000    0.8174254600000000    0.4560207400000000 W
   0.1763677600000000    0.1728342000000000    0.6343118400000000 W
   0.1756829100000000    0.5010859700000000    0.6301949200000000 W
   0.1759807600000000    0.8433408400000000    0.6302282600000000 W
   0.5044216300000000    0.1719698900000000    0.6299931300000000 W
   0.5195338800000000    0.5158192700000001    0.6327727900000000 W
   0.5194659100000000    0.8293603200000000    0.6328807400000001 W
   0.8472404800000000    0.1722746600000000    0.6299488600000001 W
   0.8330976900000000    0.5158004600000000    0.6327082100000000 W
   0.8331214900000000    0.8292081600000000    0.6327541800000001 W
   0.2934472800000000    0.3042667600000000    0.3673948000000000 W
   0.2930943100000000    0.6376011400000000    0.3662590500000000 W
   0.2934552600000000    0.9711670300000000    0.3673329400000000 W
   0.6267787800000000    0.3042000700000000    0.3666381600000000 W
   0.6270153000000001    0.6378866000000000    0.3682326100000000 W
   0.6268217100000000    0.9710540700000000    0.3666060700000000 W
   0.9605577000000000    0.3042835900000000    0.3674413800000000 W
   0.9604569600000000    0.6376336800000000    0.3663536600000000 W
   0.9605106700000000    0.9711469500000000    0.3673789800000000 W
   0.3270554900000000    0.3284321700000000    0.5420771100000000 W
   0.3270651600000000    0.6607840100000000    0.5425381800000000 W
   0.3271145300000000    0.9926310000000000    0.5421253900000000 W
   0.6594765299999999    0.3283963700000000    0.5423604300000000 W
   0.6580974200000000    0.6597717500000000    0.5353461800000000 W
   0.6595241700000000   -0.0070600100000000    0.5424089700000000 W
   0.9917279500000000    0.3286047400000000    0.5419756900000000 W
   0.9920831800000000    0.6607399800000000    0.5423806700000000 W
   0.9919141000000000    0.9926609800000000    0.5420492500000000 W
   0.1246418100000000    0.1360617900000000    0.3548060700000000 N
   0.1242184700000000    0.4689108600000000    0.3526579600000000 N
   0.1242484600000000    0.8026973700000000    0.3525837200000000 N
   0.4574492800000000    0.1358841200000000    0.3532221000000000 N
   0.4573778400000000    0.4690435900000000    0.3510356700000000 N
   0.4573536000000000    0.8020907400000000    0.3509366300000000 N
   0.7911314200000000    0.1359338200000000    0.3532522800000000 N
   0.7904231500000000    0.4691172900000000    0.3510684700000000 N
   0.7903995400000000    0.8020551200000000    0.3510050200000000 N
   0.0055927200000000    0.0011129900000000    0.6446175100000000 N
   0.0054669200000000    0.3471689400000000    0.6444937700000000 N
   0.0150726900000000    0.6743299100000000    0.6457907899999999 N
   0.3513137200000000    0.0013653500000000    0.6446928900000000 N
   0.3513978500000000    0.3469607000000000    0.6446138400000000 N
   0.3425943600000000    0.6742206900000000    0.6460260799999999 N
   0.6788001700000000    0.0106584100000000    0.6458066000000000 N
   0.6787083600000000    0.3378351900000000    0.6456550800000000 N
   0.6832969700000000    0.6775784300000000    0.6710933800000000 N
   0.1914431900000000    0.1839916300000000    0.7159852900000000 H
