H1 W36 N18
1.0
   8.8135064100000005    0.0000000000000000   -0.6873464400000000
  -0.0075723000000000    8.8275280200000008   -0.4840591800000000
   0.0000000000000000    0.0000000000000000   21.3095355700000013
W N H
36 18 1
direct
   0.1386777200000000    0.1499745900000000    0.4571299700000000 W
   0.1387492100000000    0.4834905300000000    0.4567060200000000 W
   0.1388349700000000    0.8163449000000000    0.4567770100000000 W
   0.4728643600000000    0.1501635300000000    0.4592122100000000 W
   0.4723944300000000    0.4837038200000000    0.4571290100000000 W
   0.4724649600000000    0.8163504400000000    0.4571536300000000 W
   0.8060372099999999    0.1499289800000000    0.4571550300000000 W
   0.8059229100000000    0.4834224500000000    0.4567876400000000 W
   0.8059351500000000    0.8163763500000000    0.4568923500000000 W
   0.1717677500000000    0.1733367100000000    0.6317127700000000 W
   0.1706911100000000    0.5074022000000000    0.6322470000000000 W
   0.1705491100000000    0.8392479800000000    0.6323449700000000 W
   0.5049394699999999    0.1733518600000000    0.6325622100000000 W
   0.5046346100000000    0.5061758900000000    0.6317120899999999 W
   0.5045433900000000    0.8403923800000000    0.6317870799999999 W
   0.8375746700000000    0.1734179700000000    0.6317982800000000 W
   0.8389472100000001    0.5076571800000000    0.6323621200000000 W
   0.8389561400000000    0.8391533700000000    0.6323429900000000 W
   0.2897673800000000    0.3041575800000000    0.3676604600000000 W
   0.2889858100000000    0.6376548399999999    0.3671202000000000 W
   0.2897679600000000    0.9714914300000000    0.3676694500000000 W
   0.6224115000000000    0.3041542000000000    0.3676759700000000 W
   0.6229490600000001    0.6377837100000000    0.3671947600000000 W
   0.6225427300000000    0.9713918100000000    0.3677480300000000 W
   0.9560878700000000    0.3047175200000000    0.3671198800000000 W
   0.9559393600000000    0.6376787000000000    0.3666821900000000 W
   0.9559891300000000    0.9708466400000000    0.3671934100000000 W
   0.3199596000000000    0.3296332800000000    0.5427247700000000 W
   0.3210303200000000    0.6614035200000000    0.5421453500000000 W
   0.3198744100000000    0.9933121600000000    0.5427923700000000 W
   0.6563145900000000    0.3297803000000000    0.5427959700000000 W
   0.6549985699999999    0.6613941600000000    0.5422006800000000 W
   0.6564947200000000    0.9931299000000000    0.5428716600000000 W
   0.9879892000000000    0.3283721500000000    0.5421588000000001 W
   0.9880550400000000    0.6612946600000000    0.5419743200000000 W
   0.9880289799999999    0.9944304800000000    0.5421950700000000 W
   0.1198608800000000    0.1358402500000000    0.3529724200000000 N
   0.1203330300000000    0.4687529800000000    0.3524732500000000 N
   0.1203503000000000    0.8028758800000000    0.3525729400000000 N
   0.4537121500000000    0.1360150500000000    0.3544600400000000 N
   0.4534107900000000    0.4694034400000000    0.3529672500000000 N
   0.4533277100000000    0.8023169900000000    0.3530991300000000 N
   0.7869380000000000    0.1359571800000000    0.3531045200000000 N
   0.7862501000000000    0.4687805000000000    0.3525809500000000 N
   0.7863352100000000    0.8027810900000000    0.3525376500000000 N
   0.0073666500000000    0.0089279800000000    0.6465172400000000 N
   0.0073463500000000    0.3415442200000000    0.6464257200000000 N
   0.0076359300000000    0.6753154500000000    0.6472288300000000 N
   0.3387777700000000    0.0066826600000000    0.6454445400000000 N
   0.3388473500000000    0.3434394500000000    0.6453191200000000 N
   0.3410734800000000    0.6752799400000000    0.6464250200000000 N
   0.6757835800000001    0.0065263000000000    0.6455345000000000 N
   0.6757024400000000    0.3436141600000000    0.6454236800000001 N
   0.6737215200000000    0.6753149200000000    0.6465210100000000 N
   0.5200796600000001    0.1845026400000000    0.7141811900000000 H
