H1 W36 N18
1.0
   8.8135064100000005    0.0000000000000000   -0.6873464400000000
  -0.0075723000000000    8.8275280200000008   -0.4840591800000000
   0.0000000000000000    0.0000000000000000   21.3095355700000013
W N H
36 18 1
direct
   0.1421138900000000    0.1466931200000000    0.4570807600000000 W
   0.1424740400000000    0.4805567100000000    0.4591768300000000 W
   0.1420882600000000    0.8139785500000000    0.4570960600000000 W
   0.4754483400000000    0.1467618900000000    0.4566883400000000 W
   0.4756722300000000    0.4802424100000000    0.4570764600000000 W
   0.4754219700000000    0.8138619200000000    0.4567225000000000 W
   0.8083797600000000    0.1468211300000000    0.4567178700000000 W
   0.8083861800000000    0.4802681600000000    0.4570864500000000 W
   0.8083394400000000    0.8139201800000000    0.4567718700000000 W
   0.1750710100000000    0.1700095300000000    0.6316236600000000 W
   0.1751475100000000    0.5031896800000000    0.6325335900000000 W
   0.1752639700000000    0.8358748499999999    0.6316805500000000 W
   0.5093249200000000    0.1688484800000000    0.6322143400000000 W
   0.5079898600000000    0.5029180400000000    0.6316245800000000 W
   0.5095960899999999    0.8372524400000000    0.6323093100000000 W
   0.8409448000000000    0.1686951400000000    0.6323252100000000 W
   0.8421514600000000    0.5027609300000000    0.6316718900000000 W
   0.8409102100000000    0.8372994600000000    0.6322149000000000 W
   0.2912323500000000    0.3026430700000000    0.3676173800000000 W
   0.2912366100000000    0.6352355400000000    0.3675915100000000 W
   0.2918175600000000    0.9689930300000000    0.3670716600000000 W
   0.6247418800000000    0.3018962300000000    0.3670727300000000 W
   0.6248210400000000    0.6358485800000000    0.3671457100000000 W
   0.6246865500000000    0.9688843200000000    0.3666400000000000 W
   0.9586361100000000    0.3026032600000000    0.3675880900000000 W
   0.9585087300000000    0.6353749000000000    0.3676757400000000 W
   0.9579008200000000    0.9689054800000000    0.3671516400000000 W
   0.3264762600000000    0.3231739300000000    0.5427411300000000 W
   0.3266170600000000    0.6594882800000000    0.5427803600000000 W
   0.3252320800000000    0.9912128900000000    0.5421366200000000 W
   0.6582482200000001    0.3242274000000000    0.5421323800000000 W
   0.6582190600000000    0.6581768700000000    0.5421133600000000 W
   0.6580636800000000    0.9913551200000000    0.5419101200000001 W
   0.9901802900000000    0.3230648400000000    0.5427834200000000 W
   0.9900671000000000    0.6595911300000000    0.5427581100000000 W
   0.9912754499999999    0.9912511500000000    0.5421206700000000 W
   0.1220955400000000    0.1335201600000000    0.3529006300000000 N
   0.1223456500000000    0.4673254200000000    0.3544560100000000 N
   0.1222299000000000    0.8006191600000000    0.3530674700000000 N
   0.4550201600000000    0.1340117400000000    0.3523745500000000 N
   0.4556788700000000    0.4671045200000000    0.3529012400000000 N
   0.4550445200000000    0.7999768000000000    0.3525162300000000 N
   0.7890980100000000    0.1340128300000000    0.3525120100000000 N
   0.7886293200000000    0.4670212900000000    0.3530558100000000 N
   0.7890239300000000    0.8000462900000000    0.3524948800000000 N
   0.0115943600000000    0.0047769800000000    0.6463351400000000 N
   0.0092657600000000    0.3362847100000000    0.6454426000000000 N
   0.0090872400000000    0.6732769100000000    0.6452876600000000 N
   0.3441538100000000    0.0049156800000000    0.6464407100000000 N
   0.3460006300000000    0.3363721000000000    0.6453721500000000 N
   0.3461578500000000    0.6731696700000001    0.6454266800000000 N
   0.6779321400000000    0.0050291100000000    0.6471215900000000 N
   0.6778027500000000    0.3385818700000000    0.6464375600000000 N
   0.6779309700000000    0.6710798800000000    0.6463308500000000 N
   0.1906534400000000    0.5140521700000000    0.7142436700000000 H
