W3 N4
1.0
   2.8459395000000001    0.0000000000000000    0.0104821300000000
  -1.4068459300000000    2.5785694100000001   -0.2163597900000000
   0.0000000000000000    0.0000000000000000   22.9756335599999986
W N
3 4
direct
   0.2770230600000000    0.0147505200000000    0.3739136200000000 W
   0.3817697600000000    0.2732822400000000    0.6273494900000000 W
   0.3237014200000000    0.1254171300000000    0.5001648500000000 W
   0.7410438100000000    0.9229225200000000    0.6739768100000000 N
   0.5980269900000000    0.6275271500000000    0.3249252800000000 N
   0.0187430400000000    0.5199144900000000    0.5619311800000000 N
   0.6347789200000000    0.7420439500000000    0.4377387700000000 N
