H1 W18 N45
1.0
   8.7564020700000000    0.0000000000000000    0.2593228500000000
  -0.0034886100000000    8.6562110099999998    0.0416182200000000
   0.0000000000000000    0.0000000000000000   22.6308834700000006
W N H
18 45 1
direct
   0.1036580700000000    0.0981272900000000    0.6394768700000000 W
   0.1035639800000000    0.4403927000000000    0.6383165400000000 W
   0.1100158400000000    0.7687632000000000    0.6387137500000000 W
   0.4458326800000000    0.0977518000000000    0.6380043600000000 W
   0.4470013900000000    0.4415402800000000    0.6368386900000000 W
   0.4394760200000000    0.7691092899999999    0.6385141000000000 W
   0.7745104300000000    0.1040834200000000    0.6384875600000000 W
   0.7749291699999999    0.4342272800000000    0.6383961700000000 W
   0.7751391000000000    0.7694407200000000    0.6380329500000000 W
   0.1171014400000000    0.1031739600000000    0.4771546900000000 W
   0.1212130400000000    0.4367138800000000    0.4761408100000000 W
   0.1177060400000000    0.7656416800000000    0.4764811800000000 W
   0.4542093500000000    0.1039959800000000    0.4756962600000000 W
   0.4488002800000000    0.4347786200000000    0.4746629600000000 W
   0.4519818000000000    0.7683670800000000    0.4761672400000000 W
   0.7836441600000000    0.1011579100000000    0.4762655900000000 W
   0.7866532000000001    0.4349740200000000    0.4760108500000000 W
   0.7866333400000000    0.7720730400000000    0.4759273400000000 W
   0.1323114500000000    0.1046854400000000    0.3239038500000000 N
   0.1316077600000000    0.4364312300000000    0.3241513300000000 N
   0.1313709200000000    0.7709711600000000    0.3244731900000000 N
   0.4637812600000000    0.1043320800000000    0.3241276000000000 N
   0.4646860900000000    0.4369767800000000    0.3230950700000000 N
   0.4651142300000000    0.7710640100000000    0.3245205400000000 N
   0.7981493600000000    0.1041479000000000    0.3244908300000000 N
   0.7981403200000000    0.4378916700000000    0.3242972700000000 N
   0.7978698400000001    0.7701958000000000    0.3245947000000000 N
   0.1254022400000000    0.1024627300000000    0.3737070400000000 N
   0.1273044500000000    0.4378852700000000    0.3740125900000000 N
   0.1260179000000000    0.7688318300000000    0.3743701300000000 N
   0.4617623200000000    0.1031038900000000    0.3740309700000000 N
   0.4590436000000000    0.4367634900000000    0.3730285600000000 N
   0.4601608000000000    0.7700923000000000    0.3743741400000000 N
   0.7929247000000000    0.1026582000000000    0.3744267100000000 N
   0.7943692400000000    0.4362241900000000    0.3741596000000000 N
   0.7943690200000000    0.7714044500000000    0.3744824400000000 N
   0.1139966600000000    0.1041925000000000    0.5597235400000000 N
   0.1159144100000000    0.4335921100000000    0.5589540600000000 N
   0.1133034500000000    0.7672878900000000    0.5592810000000000 N
   0.4450471400000000    0.1046722800000000    0.5586590500000000 N
   0.4438880100000000    0.4337593400000000    0.5577407700000000 N
   0.4461947300000000    0.7685461200000000    0.5589078600000000 N
   0.7789147000000000    0.1024835100000000    0.5590974600000000 N
   0.7802388800000000    0.4353134600000000    0.5588128000000000 N
   0.7802345900000000    0.7699681900000001    0.5589649000000000 N
   0.2748341400000000    0.2713664900000000    0.6692793200000000 N
   0.2736497400000000    0.6001181100000000    0.6602365100000001 N
   0.2732472800000000    0.9369950700000000    0.6613342500000000 N
   0.6046006400000000    0.2694941900000000    0.6601770700000000 N
   0.6081716900000000    0.6040479200000000    0.6603344000000000 N
   0.6074885900000000    0.9342471300000000    0.6599590200000000 N
   0.9408128300000000    0.2691335100000000    0.6613649800000000 N
   0.9386889000000000    0.6034363000000000    0.6603517400000000 N
   0.9388383800000000    0.9341890400000000    0.6605157400000000 N
   0.2850807700000000    0.2666489700000000    0.4601474000000000 N
   0.2866081800000000    0.6040155500000000    0.4644453200000000 N
   0.2851411800000000    0.9361330400000000    0.4650576700000000 N
   0.6204091800000000    0.2714963200000000    0.4644989100000000 N
   0.6206264300000000    0.6017806200000000    0.4638128600000000 N
   0.6184301700000000    0.9343911400000000    0.4650297900000000 N
   0.9529979300000000    0.2694588900000000    0.4650665400000000 N
   0.9517388200000000    0.6013201600000000    0.4646943700000000 N
   0.9547489100000000    0.9363486100000000    0.4652160500000000 N
   0.2793073700000000    0.2790185100000000    0.7145286100000000 H
