H1 W18 N45
1.0
   8.7564020700000000    0.0000000000000000    0.2593228500000000
  -0.0034886100000000    8.6562110099999998    0.0416182200000000
   0.0000000000000000    0.0000000000000000   22.6308834700000006
W N H
18 45 1
direct
   0.0998339900000000    0.0944010800000000    0.6379485200000000 W
   0.0998198600000000    0.4385930400000000    0.6379487000000000 W
   0.1070549300000000    0.7664892200000000    0.6391849700000000 W
   0.4441431200000000    0.0943842000000000    0.6379519900000000 W
   0.4441223900000000    0.4385556600000000    0.6379630300000000 W
   0.4367259500000000    0.7664707200000000    0.6391854700000000 W
   0.7718922400000000    0.1014202000000000    0.6392122099999999 W
   0.7718766200000000    0.4315477800000000    0.6392150100000000 W
   0.7719134300000000    0.7664911900000000    0.6385750500000000 W
   0.1174854100000000    0.1019780200000000    0.4756526700000000 W
   0.1177468800000000    0.4349853100000000    0.4756267600000000 W
   0.1196813800000000    0.7689046500000000    0.4768910400000000 W
   0.4522616400000000    0.1022353900000000    0.4756285800000000 W
   0.4525798300000000    0.4352536200000000    0.4756589000000000 W
   0.4501391000000000    0.7683299300000000    0.4768921000000000 W
   0.7852183500000000    0.1042849800000000    0.4770143400000000 W
   0.7846101300000000    0.4329191000000000    0.4770220500000000 W
   0.7849393000000000    0.7685957800000000    0.4762853400000000 W
   0.1320375900000000    0.1044807700000000    0.3243602100000000 N
   0.1320343900000000    0.4370628900000000    0.3243533800000000 N
   0.1312913900000000    0.7707565800000000    0.3244555000000000 N
   0.4646241000000000    0.1044984800000000    0.3243496000000000 N
   0.4646076400000000    0.4370271100000000    0.3243570200000000 N
   0.4653802900000000    0.7707745499999999    0.3244584100000000 N
   0.7983177600000000    0.1036827400000000    0.3243692200000000 N
   0.7983383400000000    0.4378563200000000    0.3243711500000000 N
   0.7983505400000001    0.7707700700000000    0.3245573700000000 N
   0.1270007800000000    0.1033897600000000    0.3742830300000000 N
   0.1270252900000000    0.4366241900000000    0.3742722700000000 N
   0.1272199300000000    0.7700591500000000    0.3743445200000000 N
   0.4603971300000000    0.1033992000000000    0.3742732500000000 N
   0.4604325700000000    0.4366611100000000    0.3742854600000000 N
   0.4601835800000000    0.7699851400000000    0.3743451200000000 N
   0.7937704500000000    0.1039965600000000    0.3742656100000000 N
   0.7936730600000000    0.4360499300000000    0.3742660300000000 N
   0.7937040500000000    0.7700167300000000    0.3744026300000000 N
   0.1124685700000000    0.1020727500000000    0.5587940200000000 N
   0.1124957400000000    0.4329213300000000    0.5587867000000000 N
   0.1122949100000000    0.7675538400000000    0.5595313000000000 N
   0.4441782800000000    0.1020961400000000    0.5587853200000000 N
   0.4442192700000000    0.4329649100000000    0.5587952600000000 N
   0.4442370500000000    0.7674698700000000    0.5595331900000000 N
   0.7783042999999999    0.1018116200000000    0.5595852300000000 N
   0.7782173400000000    0.4332103100000000    0.5595875100000000 N
   0.7782557100000000    0.7675118800000000    0.5594535700000000 N
   0.2696965300000000    0.2660934900000000    0.6668651600000000 N
   0.2701661400000000    0.5972676099999999    0.6611344300000001 N
   0.2701946900000000    0.9351000100000000    0.6611343000000000 N
   0.6017180600000001    0.2661659200000000    0.6613614000000000 N
   0.6049152900000000    0.6009914600000000    0.6610558300000000 N
   0.6049096500000000    0.9313864600000000    0.6610787200000000 N
   0.9386136600000000    0.2661916200000000    0.6613592000000000 N
   0.9354585600000001    0.6010045800000000    0.6610768200000000 N
   0.9354538200000000    0.9313709100000001    0.6610562800000001 N
   0.2860493900000000    0.2687828700000000    0.4627838100000000 N
   0.2857231400000000    0.6011118700000000    0.4648320200000000 N
   0.2860239900000000    0.9363822700000000    0.4648345700000000 N
   0.6192527799999999    0.2685516000000000    0.4647535200000000 N
   0.6200952100000000    0.6023013300000000    0.4649236400000000 N
   0.6199608800000000    0.9353904400000000    0.4649027500000000 N
   0.9524977500000000    0.2689350500000000    0.4647529900000000 N
   0.9517798600000000    0.6021208300000001    0.4649091600000000 N
   0.9516200200000000    0.9351996500000000    0.4649289600000000 N
   0.2661912800000000    0.2655233200000000    0.7122553600000000 H
