H1 W18 N45
1.0
   8.7564020700000000    0.0000000000000000    0.2593228500000000
  -0.0034886100000000    8.6562110099999998    0.0416182200000000
   0.0000000000000000    0.0000000000000000   22.6308834700000006
W N H
18 45 1
direct
   0.1085735000000000    0.1037527300000000    0.6382197300000000 W
   0.1048723200000000    0.4328611300000000    0.6509246400000001 W
   0.1083897100000000    0.7628927300000000    0.6380347700000000 W
   0.4427160100000000    0.0991644200000000    0.6372595500000000 W
   0.4376717500000000    0.4331018100000000    0.6380217500000001 W
   0.4428591700000000    0.7674110700000000    0.6373313000000000 W
   0.7733991400000000    0.0997517500000000    0.6386340000000000 W
   0.7778125500000000    0.4331989700000000    0.6380706200000000 W
   0.7734661400000000    0.7666714200000000    0.6386221700000000 W
   0.1206872300000000    0.1007250800000000    0.4757051900000000 W
   0.1213158400000000    0.4337353700000000    0.4844198300000000 W
   0.1170688800000000    0.7717409900000000    0.4754163900000000 W
   0.4493659200000000    0.1055381800000000    0.4751072700000000 W
   0.4537339400000000    0.4346142700000000    0.4755754500000000 W
   0.4551115100000000    0.7656793600000000    0.4751786700000000 W
   0.7890220900000000    0.1001278700000000    0.4763729200000000 W
   0.7837570600000000    0.4381769300000000    0.4754485100000000 W
   0.7873207200000000    0.7674480900000000    0.4764491800000000 W
   0.1311057000000000    0.1029112300000000    0.3251222100000000 N
   0.1325613400000000    0.4375877000000000    0.3164371800000000 N
   0.1315195900000000    0.7714402000000000    0.3249600900000000 N
   0.4654107400000000    0.1035088300000000    0.3234267100000000 N
   0.4652089300000000    0.4373809300000000    0.3248968200000000 N
   0.4646794900000000    0.7710240000000000    0.3233321100000000 N
   0.7976653900000000    0.1044510900000000    0.3240531800000000 N
   0.7966699600000000    0.4370222500000000    0.3245825300000000 N
   0.7979737800000000    0.7704078000000000    0.3242304900000000 N
   0.1274743500000000    0.1019515300000000    0.3750670200000000 N
   0.1277007900000000    0.4364827500000000    0.3659218200000000 N
   0.1262939000000000    0.7720556400000000    0.3748697600000000 N
   0.4588754600000000    0.1053427300000000    0.3733223000000000 N
   0.4611546300000000    0.4364625900000000    0.3748113700000000 N
   0.4609177400000000    0.7681631600000000    0.3732197600000000 N
   0.7959237700000000    0.1030866600000000    0.3739187700000000 N
   0.7917482100000000    0.4375204900000000    0.3744976100000000 N
   0.7950544000000000    0.7692890200000000    0.3741554500000000 N
   0.1134507900000000    0.1017051300000000    0.5591891800000000 N
   0.1144608300000000    0.4335677700000000    0.5627270700000000 N
   0.1123550300000000    0.7674281600000000    0.5590325900000001 N
   0.4479518800000000    0.1005617000000000    0.5578902300000000 N
   0.4464543000000000    0.4341231300000000    0.5589229900000000 N
   0.4498345100000000    0.7681202400000000    0.5579144000000000 N
   0.7799478900000000    0.0991628000000000    0.5589815800000000 N
   0.7803153200000000    0.4351314200000000    0.5590854800000000 N
   0.7794182200000001    0.7682069200000000    0.5590172700000000 N
   0.2776537700000000    0.2624043800000000    0.6585470500000000 N
   0.2776004400000000    0.6036718500000000    0.6587948800000000 N
   0.2721113900000000    0.9328035800000000    0.6581977400000000 N
   0.6062377200000000    0.2682991600000000    0.6587562200000000 N
   0.6060899000000000    0.5974938300000000    0.6584016800000000 N
   0.6062546599999999    0.9329859000000000    0.6618056500000000 N
   0.9356904800000000    0.2625490800000000    0.6612073400000000 N
   0.9360364200000000    0.6031441200000000    0.6610095800000000 N
   0.9408643700000000    0.9330232000000001    0.6592945700000000 N
   0.2844209600000000    0.2714735600000000    0.4647593900000000 N
   0.2842938100000000    0.6018853400000000    0.4647215800000000 N
   0.2895240300000000    0.9332112700000000    0.4649043200000000 N
   0.6226000100000000    0.2660659700000000    0.4648315900000000 N
   0.6205484400000000    0.6031035400000000    0.4647147600000000 N
   0.6201164700000000    0.9368036300000000    0.4634225000000000 N
   0.9543974000000000    0.2717004500000000    0.4653157600000000 N
   0.9573272200000000    0.5984207700000000    0.4650310000000000 N
   0.9525652600000000    0.9357151200000000    0.4652075000000000 N
   0.1169659400000000    0.4317330600000000    0.7298830200000000 H
