H1 W36 N24
1.0
   8.1412555599999994    0.0000000000000000   -0.0072088000000000
  -0.0003590100000000    8.9274485400000003   -0.2580443100000000
   0.0000000000000000    0.0000000000000000   22.7155575100000000
W N H
36 24 1
direct
   0.2284987900000000    0.1127509600000000    0.6005023500000000 W
   0.2284902100000000    0.4766312200000000    0.6004925900000000 W
   0.2284984600000000    0.7947148100000000    0.6011559100000000 W
   0.7284886000000000    0.1332404800000000    0.6027881300000000 W
   0.7285097800000000    0.4564202100000000    0.6027785600000000 W
   0.7285009400000000    0.7949046200000000    0.6038517000000000 W
   0.4783999400000000    0.2799879000000000    0.3981894100000000 W
   0.4775791800000000    0.6126757600000000    0.3979000500000000 W
   0.4775836000000000    0.9472930600000000    0.3978959500000000 W
   0.9775930600000000    0.2799902500000000    0.3981807300000000 W
   0.9784080900000000    0.6126769500000000    0.3978969300000000 W
   0.9783972000000000    0.9472781700000000    0.3978921500000000 W
   0.2278619600000000    0.1091397100000000    0.3406303800000000 W
   0.2278703500000000    0.4423408600000000    0.3406266200000000 W
   0.2278682100000000    0.7757626399999999    0.3403759000000000 W
   0.7278521000000000    0.1092952300000000    0.3405663100000000 W
   0.7278675900000000    0.4422000200000000    0.3405598900000000 W
   0.7278413700000000    0.7758158100000000    0.3411238800000000 W
   0.4702532700000000    0.2987984600000000    0.6557509800000000 W
   0.4783980900000000    0.6328802700000000    0.6600004200000000 W
   0.4784002300000000    0.9651626600000000    0.6599818200000001 W
   0.9870406000000000    0.2987836300000000    0.6557509700000000 W
   0.9788650000000000    0.6328885500000000    0.6600015200000000 W
   0.9788561200000000    0.9651567599999999    0.6599826400000000 W
   0.4790429900000000    0.2905768000000000    0.5469762300000000 W
   0.4792482200000000    0.6259587200000000    0.5477416600000000 W
   0.4792268200000000    0.9554020300000000    0.5477312700000000 W
   0.9777409200000000    0.2905732600000000    0.5469786200000000 W
   0.9775274200000000    0.6259671100000000    0.5477286200000000 W
   0.9775376300000000    0.9554091500000000    0.5477331000000000 W
   0.2281329300000000    0.1188049400000000    0.4523665700000000 W
   0.2280979400000000    0.4493212100000000    0.4523570500000000 W
   0.2281270900000000    0.7840173000000000    0.4519836300000000 W
   0.7281482500000001    0.1162196000000000    0.4520494500000000 W
   0.7281194700000000    0.4518118900000000    0.4520421300000000 W
   0.7281427499999999    0.7839974000000000    0.4522857000000000 W
   0.2286494600000000    0.2993158600000000    0.6635083100000000 N
   0.2286645600000000    0.6352444400000000    0.6717239500000000 N
   0.2286614700000000    0.9645698000000000    0.6717076700000000 N
   0.7286920400000000    0.3000930100000000    0.6744102300000000 N
   0.7286672199999999    0.6323581900000000    0.6703801900000000 N
   0.7286573500000000    0.9672427000000000    0.6703980800000000 N
   0.4777729400000000    0.1085653800000000    0.3300848900000000 N
   0.4777706000000000    0.4413837600000000    0.3300774200000000 N
   0.4777577900000000    0.7749806000000000    0.3303102100000000 N
   0.9779025700000000    0.1085656800000000    0.3300817900000000 N
   0.9779069000000000    0.4413882400000000    0.3300764700000000 N
   0.9779159900000000    0.7749798700000000    0.3303127400000000 N
   0.4785235700000000    0.1172144400000000    0.4720266100000000 N
   0.4785036000000000    0.4533388400000000    0.4720395700000000 N
   0.4784960600000000    0.7853134400000000    0.4722807800000000 N
   0.9778576800000000    0.1172126600000000    0.4720271900000000 N
   0.9778350099999999    0.4533355300000000    0.4720449400000000 N
   0.9778788899999999    0.7853183100000000    0.4722812200000000 N
   0.2283413900000000    0.2896665300000000    0.5311906800000000 N
   0.2283363900000000    0.6216764700000000    0.5254210300000000 N
   0.2283291800000000    0.9568759300000000    0.5254120200000000 N
   0.7283305600000000    0.2893754800000000    0.5267137300000000 N
   0.7283371400000000    0.6224571700000000    0.5289875400000000 N
   0.7283363200000000    0.9565537800000000    0.5289621200000000 N
   0.7288201700000000    0.3033499500000000    0.7199946900000000 H
