H1 W36 N24
1.0
   8.1412555599999994    0.0000000000000000   -0.0072088000000000
  -0.0003590100000000    8.9274485400000003   -0.2580443100000000
   0.0000000000000000    0.0000000000000000   22.7155575100000000
W N H
36 24 1
direct
   0.2307999300000000    0.1400061200000000    0.6016998099999999 W
   0.2319466100000000    0.4604159900000000    0.6012744200000000 W
   0.2306262400000000    0.7806701000000000    0.6014137100000000 W
   0.7301201500000000    0.1396762600000000    0.6019503300000000 W
   0.7283760300000000    0.4606481500000000    0.6013462300000000 W
   0.7301015700000000    0.7809659000000000    0.6014508100000000 W
   0.4791555900000000    0.2821415300000000    0.3988866800000000 W
   0.4792340700000000    0.6086570400000000    0.3988346900000000 W
   0.4792287200000000    0.9463289800000000    0.3971557800000000 W
   0.9792173800000000    0.2678672800000000    0.3981618900000000 W
   0.9792462100000000    0.6239756700000000    0.3980884300000000 W
   0.9791251800000000    0.9459543700000000    0.3990352300000000 W
   0.2290564800000000    0.1072956600000000    0.3406485300000000 W
   0.2273121200000000    0.4414798300000000    0.3420405200000000 W
   0.2291946600000000    0.7754150000000000    0.3406993600000000 W
   0.7285497200000000    0.1073394700000000    0.3407488700000000 W
   0.7304626100000000    0.4414372200000000    0.3421307400000000 W
   0.7284827000000000    0.7753594300000000    0.3407123000000000 W
   0.4798249800000000    0.2987277100000000    0.6619020200000000 W
   0.4800160400000000    0.6323483400000000    0.6618111900000000 W
   0.4805798500000000    0.9642797500000000    0.6556466500000000 W
   0.9802568300000000    0.3006853300000000    0.6603086700000000 W
   0.9804521800000000    0.6291479400000000    0.6601037400000000 W
   0.9805606300000000    0.9640592300000000    0.6558260200000000 W
   0.4802027300000000    0.2897887500000000    0.5474104400000001 W
   0.4801732500000000    0.6214438400000000    0.5469870999999999 W
   0.4803251400000000    0.9553843100000000    0.5468662500000000 W
   0.9801048300000000    0.2934609400000000    0.5473862200000000 W
   0.9800405599999999    0.6177313400000000    0.5471327100000000 W
   0.9799847400000000    0.9552267400000000    0.5476513600000000 W
   0.2296420400000000    0.1146117600000000    0.4525309600000000 W
   0.2298175500000000    0.4502817500000000    0.4522250700000000 W
   0.2297094100000000    0.7866700100000000    0.4524100500000000 W
   0.7295618600000000    0.1147709100000000    0.4526007300000000 W
   0.7293466300000000    0.4501258800000000    0.4522807700000000 W
   0.7296494900000000    0.7863780200000000    0.4524314900000000 W
   0.2296168600000000    0.3005310000000000    0.6718972900000000 N
   0.2292434500000000    0.6312806300000000    0.6717855400000000 N
   0.2306807700000000    0.9650255599999999    0.6642168100000000 N
   0.7312714000000000    0.3011316300000000    0.6719822500000000 N
   0.7311134100000000    0.6312337400000000    0.6718197900000000 N
   0.7305795500000000    0.9649080000000000    0.6643769100000000 N
   0.4787295300000000    0.1091007500000000    0.3308553800000000 N
   0.4787732200000000    0.4402680500000000    0.3302985700000000 N
   0.4787616100000000    0.7718851200000000    0.3311331700000000 N
   0.9786350800000000    0.1050029900000000    0.3286005700000000 N
   0.9787778600000000    0.4410564400000000    0.3345233000000000 N
   0.9786961600000000    0.7764657200000000    0.3285481500000000 N
   0.4797148900000000    0.1159371300000000    0.4717014400000000 N
   0.4796872700000000    0.4503174600000000    0.4741278700000000 N
   0.4797752300000000    0.7851210900000000    0.4714547300000000 N
   0.9797593000000000    0.1211784600000000    0.4738169400000000 N
   0.9796471800000000    0.4508123900000000    0.4684538100000000 N
   0.9798189000000000    0.7805894600000000    0.4735855000000000 N
   0.2297880000000000    0.2865730300000000    0.5263499400000000 N
   0.2297631200000000    0.6242568300000000    0.5260472500000000 N
   0.2295241500000000    0.9558839099999999    0.5324590400000000 N
   0.7303307500000000    0.2868933500000000    0.5267878600000000 N
   0.7303130400000000    0.6239001500000000    0.5262413100000000 N
   0.7307116400000000    0.9558148900000000    0.5322373600000000 N
   0.4730952700000000    0.4698095100000000    0.7126107400000000 H
