H1 W36 N24
1.0
   8.1412555599999994    0.0000000000000000   -0.0072088000000000
  -0.0003590100000000    8.9274485400000003   -0.2580443100000000
   0.0000000000000000    0.0000000000000000   22.7155575100000000
W N H
36 24 1
direct
   0.2285037900000000    0.1146200600000000    0.6003057000000001 W
   0.2285176100000000    0.4806824900000000    0.6008504200000000 W
   0.2285158800000000    0.7974364200000000    0.6006393100000000 W
   0.7285190000000000    0.1430218500000000    0.6029926799999999 W
   0.7285268400000000    0.4642891400000000    0.6031512200000000 W
   0.7284938100000000    0.7872995600000000    0.6033585900000000 W
   0.4779074100000000    0.2813998500000000    0.3983035700000000 W
   0.4776139200000000    0.6018223600000000    0.3978087000000000 W
   0.4773191800000000    0.9619091600000000    0.3983107200000000 W
   0.9780555700000000    0.2814008500000000    0.3983021100000000 W
   0.9783898300000000    0.6018537000000000    0.3978066800000000 W
   0.9786734100000000    0.9619074399999999    0.3983180200000000 W
   0.2277749900000000    0.1137388500000000    0.3393492000000000 W
   0.2278662200000000    0.4409454300000000    0.3391440000000000 W
   0.2278736700000000    0.7785201800000000    0.3437732300000000 W
   0.7277501400000000    0.1134246600000000    0.3390734700000000 W
   0.7278445400000000    0.4408370200000000    0.3386286600000000 W
   0.7278585900000000    0.7785504100000000    0.3440139100000000 W
   0.4700221200000000    0.3030761300000000    0.6566612500000000 W
   0.4778623900000000    0.6361149200000000    0.6609570299999999 W
   0.4789877600000000    0.9670412400000000    0.6587529500000000 W
   0.9872897600000000    0.3030714500000000    0.6566552800000000 W
   0.9794564600000000    0.6361174800000000    0.6609575400000000 W
   0.9782097600000000    0.9670253900000000    0.6587541500000000 W
   0.4787730300000000    0.2958080900000000    0.5479359300000000 W
   0.4791639600000000    0.6293535500000000    0.5470990700000000 W
   0.4794864500000000    0.9570741600000000    0.5478655099999999 W
   0.9779951200000000    0.2957999200000000    0.5479345300000000 W
   0.9776129800000000    0.6293526900000000    0.5471032500000000 W
   0.9772639800000000    0.9570613400000000    0.5478602200000000 W
   0.2281570300000000    0.1237393700000000    0.4531688000000000 W
   0.2281273800000000    0.4475154400000000    0.4526197500000000 W
   0.2281374000000000    0.7852038400000000    0.4520498100000000 W
   0.7281315500000000    0.1211548800000000    0.4523373200000000 W
   0.7281465700000000    0.4497022700000000    0.4516159000000000 W
   0.7281371100000000    0.7874030900000000    0.4518644100000000 W
   0.2287197700000000    0.3023860300000000    0.6641675900000000 N
   0.2286923700000000    0.6385686600000000    0.6723880000000000 N
   0.2286518400000000    0.9675161200000000    0.6718810000000000 N
   0.7287313600000001    0.3071800300000000    0.6752698300000000 N
   0.7286972000000000    0.6351057600000000    0.6731268500000001 N
   0.7286492100000000    0.9695834700000000    0.6670000300000000 N
   0.4778534200000000    0.1115705400000000    0.3275281400000000 N
   0.4779188700000000    0.4413278400000000    0.3272905500000000 N
   0.4778360400000000    0.7775416700000000    0.3352632400000000 N
   0.9776494700000000    0.1115602500000000    0.3275320600000000 N
   0.9777433400000000    0.4413445400000000    0.3272955200000000 N
   0.9778597600000000    0.7775477200000001    0.3352502300000000 N
   0.4784331900000000    0.1197994800000000    0.4735896800000000 N
   0.4785186800000000    0.4574756100000000    0.4733537300000000 N
   0.4784382700000000    0.7866724000000000    0.4671088700000000 N
   0.9779740099999999    0.1197944900000000    0.4735805300000000 N
   0.9778727300000000    0.4574723400000000    0.4733466300000000 N
   0.9778971600000000    0.7866738000000000    0.4671219200000000 N
   0.2283384100000000    0.2933209500000000    0.5314602600000000 N
   0.2283423800000000    0.6219400000000000    0.5256744500000000 N
   0.2283352200000000    0.9601412200000000    0.5252313199999999 N
   0.7283286400000000    0.2916371200000000    0.5268912900000000 N
   0.7283456600000000    0.6248197200000000    0.5275291900000000 N
   0.7283556300000000    0.9624301600000000    0.5330913500000000 N
   0.7288268700000000    0.3132065600000000    0.7207954000000000 H
