W6 N4
1.0
   4.0706277799999997    0.0000000000000000   -0.0036044000000000
  -0.0001196700000000    2.9758161799999998   -0.0860147700000000
   0.0000000000000000    0.0000000000000000   22.7155575100000000
W N
6 4
direct
   0.4570153300000000    0.3841453400000000    0.6020939800000000 W
   0.9560024499999999    0.8398613700000001    0.3979062800000000 W
   0.4556869300000000    0.3272136600000000    0.3405743500000000 W
   0.9572941400000000    0.8966519500000000    0.6594214400000000 W
   0.9567615700000000    0.8725692200000000    0.5483173200000000 W
   0.4562831000000000    0.3517696100000000    0.4516849500000000 W
   0.4573427900000000    0.8993543700000000    0.6711015900000000 N
   0.9556746300000000    0.3247130400000000    0.3288965700000000 N
   0.9563610500000000    0.3563011700000000    0.4714788100000000 N
   0.4566430000000000    0.8685212700000000    0.5285247199999999 N
