H1 W18 N45
1.0
   8.7564020700000000    0.0000000000000000    0.2593228500000000
  -0.0034886100000000    8.6562110099999998    0.0416182200000000
   0.0000000000000000    0.0000000000000000   22.6308834700000006
W N H
18 45 1
direct
   0.1051202800000000    0.0997822833333333    0.6390332100000001 W
   0.1051202800000000    0.4331156166666666    0.6390332100000000 W
   0.1051202800000000    0.7664489500000000    0.6390332100000001 W
   0.4384536133333333    0.0997822833333333    0.6390332100000001 W
   0.4384536133333333    0.4331156166666666    0.6390332100000001 W
   0.4384536133333333    0.7664489500000000    0.6390332100000001 W
   0.7717869466666665    0.0997822833333333    0.6390332100000000 W
   0.7717869466666666    0.4331156166666666    0.6390332100000001 W
   0.7717869466666666    0.7664489500000000    0.6390332100000000 W
   0.1182924400000000    0.1019319233333333    0.4765722000000001 W
   0.1182924400000000    0.4352652566666666    0.4765722000000001 W
   0.1182924400000000    0.7685985900000000    0.4765722000000001 W
   0.4516257733333333    0.1019319233333333    0.4765722000000001 W
   0.4516257733333333    0.4352652566666666    0.4765722000000001 W
   0.4516257733333333    0.7685985900000000    0.4765722000000001 W
   0.7849591066666666    0.1019319233333333    0.4765722000000001 W
   0.7849591066666666    0.4352652566666666    0.4765722000000001 W
   0.7849591066666666    0.7685985900000000    0.4765722000000001 W
   0.1318098733333333    0.1041460633333333    0.3244291900000000 N
   0.1318098733333333    0.4374793966666667    0.3244291900000000 N
   0.1318098733333333    0.7708127299999999    0.3244291900000001 N
   0.4651432066666666    0.1041460633333333    0.3244291900000000 N
   0.4651432066666666    0.4374793966666667    0.3244291900000000 N
   0.4651432066666666    0.7708127299999999    0.3244291900000000 N
   0.7984765399999999    0.1041460633333333    0.3244291900000000 N
   0.7984765399999999    0.4374793966666667    0.3244291900000000 N
   0.7984765399999999    0.7708127299999999    0.3244291900000000 N
   0.1271470266666666    0.1033870666666667    0.3743060300000000 N
   0.1271470266666666    0.4367204000000000    0.3743060300000000 N
   0.1271470266666666    0.7700537333333333    0.3743060300000000 N
   0.4604803600000000    0.1033870666666667    0.3743060300000000 N
   0.4604803600000000    0.4367204000000000    0.3743060300000000 N
   0.4604803600000000    0.7700537333333333    0.3743060300000000 N
   0.7938136933333333    0.1033870666666667    0.3743060300000000 N
   0.7938136933333333    0.4367204000000000    0.3743060300000000 N
   0.7938136933333333    0.7700537333333333    0.3743060300000000 N
   0.1115393066666667    0.1008198300000000    0.5595894200000000 N
   0.1115393066666667    0.4341531633333333    0.5595894200000001 N
   0.1115393066666667    0.7674864966666667    0.5595894200000000 N
   0.4448726400000000    0.1008198300000000    0.5595894200000000 N
   0.4448726400000000    0.4341531633333333    0.5595894200000001 N
   0.4448726400000000    0.7674864966666667    0.5595894200000000 N
   0.7782059733333333    0.1008198300000000    0.5595894200000001 N
   0.7782059733333333    0.4341531633333333    0.5595894200000000 N
   0.7782059733333333    0.7674864966666667    0.5595894200000001 N
   0.2700871233333333    0.2661666033333334    0.6608701600000001 N
   0.2700871233333333    0.5994999366666667    0.6608701600000001 N
   0.2700871233333333    0.9328332699999999    0.6608701600000001 N
   0.6034204566666665    0.2661666033333334    0.6608701600000001 N
   0.6034204566666665    0.5994999366666667    0.6608701600000001 N
   0.6034204566666665    0.9328332699999999    0.6608701600000001 N
   0.9367537899999999    0.2661666033333334    0.6608701600000001 N
   0.9367537899999999    0.5994999366666667    0.6608701600000001 N
   0.9367537899999999    0.9328332699999999    0.6608701600000001 N
   0.2858616133333333    0.2687445666666667    0.4651998000000000 N
   0.2858616133333334    0.6020779000000001    0.4651998000000001 N
   0.2858616133333334    0.9354112333333333    0.4651998000000001 N
   0.6191949466666666    0.2687445666666667    0.4651998000000000 N
   0.6191949466666666    0.6020779000000001    0.4651998000000000 N
   0.6191949466666666    0.9354112333333333    0.4651998000000000 N
   0.9525282800000000    0.2687445666666667    0.4651998000000000 N
   0.9525282800000000    0.6020779000000001    0.4651998000000001 N
   0.9525282800000000    0.9354112333333333    0.4651998000000001 N
   0.3508895450347979    0.3490845535612719    0.7029825954647358 H
