W5 N3
1.0
   2.9363965599999999    0.0000000000000000   -0.0107543100000000
  -0.0013716600000000    2.9368637600000000    0.0001235900000000
   0.0000000000000000    0.0000000000000000   23.8006870200000016
W N
5 3
direct
   0.3068264600000000    0.7174316400000000    0.3316218000000000 W
   0.3165005800000000    0.7173833600000000    0.6683841500000000 W
   0.8142165099999999    0.2175485700000000    0.5883120400000000 W
   0.8092458900000000    0.2175278900000000    0.4116875000000000 W
   0.3117068800000000    0.7174276700000000    0.4999944700000000 W
   0.8169750300000000    0.2174176000000000    0.6829549100000000 N
   0.8063817599999999    0.2174698000000000    0.3170471000000000 N
   0.8117218899999999    0.2174634600000000    0.4999980400000000 N
