W2 N3
1.0
   2.9193981500000001    0.0000000000000000    0.0000000000000000
  -1.4596992200000001    2.5282728699999999    0.0000000000000000
   0.0000000000000000    0.0000000000000000   20.1789679000000000
W N
2 3
direct
   0.6666670000000000    0.3333330000000000    0.5727139700000000 W
   0.6666670000000000    0.3333330000000000    0.4272860300000000 W
   0.3333330000000000    0.6666670000000000    0.6283794000000000 N
   0.3333330000000000    0.6666670000000000    0.3716206000000000 N
   0.3333330000000000    0.6666670000000000    0.5000000000000000 N
