H1 W18 N27
1.0
   8.7581944499999995    0.0000000000000000    0.0000000000000000
  -4.3790976600000002    7.5848186100000001    0.0000000000000000
   0.0000000000000000    0.0000000000000000   20.1789679000000000
W N H
18 27 1
direct
   0.2224420800000000    0.1126942200000000    0.5731013300000000 W
   0.2224420800000000    0.4430808600000000    0.5731013300000000 W
   0.2222223300000000    0.7777776700000000    0.5784203300000000 W
   0.5569191400000000    0.1126942200000000    0.5731013300000000 W
   0.5555556699999999    0.4444443300000000    0.5679695200000000 W
   0.5569191400000000    0.7775579200000000    0.5731013300000000 W
   0.8888890000000000    0.1111110000000000    0.5719357300000000 W
   0.8873057800000000    0.4430808600000000    0.5731013300000000 W
   0.8873057800000000    0.7775579200000000    0.5731013300000000 W
   0.2208854000000000    0.1100966800000000    0.4274841100000000 W
   0.2208854000000000    0.4441217200000000    0.4274841100000000 W
   0.2222223300000000    0.7777776700000000    0.4300672100000000 W
   0.5558782799999999    0.1100966800000000    0.4274841100000000 W
   0.5555556699999999    0.4444443300000000    0.4242106100000000 W
   0.5558782799999999    0.7791146000000000    0.4274841100000000 W
   0.8888890000000000    0.1111110000000000    0.4274770700000000 W
   0.8899033200000001    0.4441217200000000    0.4274841100000000 W
   0.8899033200000001    0.7791146000000000    0.4274841100000000 W
   0.1106780700000000    0.2220058700000000    0.6285737900000000 N
   0.1110308100000000    0.5553952800000000    0.6299653500000000 N
   0.1110308100000000    0.8889691900000000    0.6299653500000000 N
   0.4439075500000000    0.2211487700000000    0.6301382000000000 N
   0.4439075500000000    0.5560924500000000    0.6301382000000000 N
   0.4446047200000000    0.8889691900000000    0.6299653500000000 N
   0.7779941300000000    0.2220058700000000    0.6285737900000000 N
   0.7788512300000000    0.5560924500000000    0.6301382000000000 N
   0.7779941300000000    0.8893219300000000    0.6285737900000000 N
   0.1121701100000000    0.2227518900000000    0.3714019700000000 N
   0.1117462100000000    0.5568260900000001    0.3726523800000000 N
   0.1117462100000000    0.8882537900000000    0.3726523800000000 N
   0.4443102800000000    0.2219542200000000    0.3713387400000000 N
   0.4443102800000000    0.5556897200000001    0.3713387400000000 N
   0.4431739100000000    0.8882537900000000    0.3726523800000000 N
   0.7772481100000000    0.2227518900000000    0.3714019700000000 N
   0.7780457800000000    0.5556897200000001    0.3713387400000000 N
   0.7772481100000000    0.8878298900000000    0.3714019700000000 N
   0.1112599300000000    0.2222968000000000    0.5003176300000000 N
   0.1104910200000000    0.5543157000000000    0.5009741500000000 N
   0.1104910200000000    0.8895089800000000    0.5009741500000000 N
   0.4436597100000000    0.2206530900000000    0.5005830500000000 N
   0.4436597100000000    0.5563402900000000    0.5005830500000000 N
   0.4456843000000000    0.8895089800000000    0.5009741500000000 N
   0.7777032000000000    0.2222968000000000    0.5003176300000000 N
   0.7793469100000000    0.5563402900000000    0.5005830500000000 N
   0.7777032000000000    0.8887400700000000    0.5003176300000000 N
   0.5555554400000000    0.4444445600000000    0.6565179200000000 H
