H1 W18 N27
1.0
   8.7581944499999995    0.0000000000000000    0.0000000000000000
  -4.3790976600000002    7.5848186100000001    0.0000000000000000
   0.0000000000000000    0.0000000000000000   20.1789679000000000
W N H
18 27 1
direct
   0.2204250700000000    0.1101165100000000    0.5737377600000000 W
   0.2204250700000000    0.4436415700000000    0.5737377600000000 W
   0.2251755700000000    0.7792542900000000    0.5748485900000000 W
   0.5559434300000000    0.1128519300000000    0.5742366000000000 W
   0.5629658900000000    0.4481494400000000    0.5664111700000000 W
   0.5559434300000000    0.7764245000000000    0.5742366000000000 W
   0.8865649200000000    0.1099489600000000    0.5731935600000000 W
   0.8883751000000000    0.4432343900000000    0.5721075900000000 W
   0.8883751000000000    0.7784737000000000    0.5721075900000000 W
   0.2217726400000000    0.1108966200000000    0.4284224700000000 W
   0.2217726400000000    0.4442090100000000    0.4284224700000000 W
   0.2230301200000000    0.7781815600000000    0.4287349100000000 W
   0.5556568700000000    0.1103510900000000    0.4285510700000000 W
   0.5563075400000000    0.4448202700000000    0.4242211600000000 W
   0.5556568700000000    0.7786387900000000    0.4285510700000000 W
   0.8892463000000000    0.1112896500000000    0.4279005800000000 W
   0.8906372900000000    0.4445781100000000    0.4258587600000000 W
   0.8906372900000000    0.7793921700000001    0.4258587600000000 W
   0.1108762300000000    0.2221049500000000    0.6288917500000000 N
   0.1100486500000000    0.5544824699999999    0.6287824700000000 N
   0.1100486500000000    0.8888998400000000    0.6287824700000000 N
   0.4408946800000000    0.2386889900000000    0.6320674300000000 N
   0.4408946800000000    0.5355393600000000    0.6320674300000000 N
   0.4448282600000000    0.8890809600000000    0.6306985100000000 N
   0.7776809300000000    0.2239086200000000    0.6293201100000000 N
   0.7793668800000000    0.5563502700000000    0.6262093300000000 N
   0.7776809300000000    0.8871059800000000    0.6293201100000000 N
   0.1107339400000000    0.2220338000000000    0.3721133800000000 N
   0.1115969400000000    0.5565725500000001    0.3717404600000000 N
   0.1115969400000000    0.8883580599999999    0.3717404600000000 N
   0.4449130100000000    0.2219841200000000    0.3720750800000000 N
   0.4449130100000000    0.5562625500000000    0.3720750800000000 N
   0.4447986900000000    0.8890661800000000    0.3733550000000000 N
   0.7761484400000001    0.2219908300000000    0.3717346600000000 N
   0.7782433400000000    0.5557885000000000    0.3697168900000000 N
   0.7761484400000001    0.8874912800000000    0.3717346600000000 N
   0.1095908200000000    0.2214622400000000    0.5007113500000000 N
   0.1122861300000000    0.5569779100000000    0.5002823500000000 N
   0.1122861300000000    0.8886418900000000    0.5002823500000000 N
   0.4445704100000000    0.2198726400000000    0.5016888500000000 N
   0.4445704100000000    0.5580314400000000    0.5016888500000000 N
   0.4458819100000000    0.8896077900000000    0.5023042400000000 N
   0.7757975000000000    0.2207409500000000    0.5010150400000000 N
   0.7830351500000000    0.5581844100000000    0.4979714600000000 N
   0.7757975000000000    0.8883902100000000    0.5010150400000000 N
   0.4403036300000000    0.3868186500000000    0.6574236200000000 H
