H1 W18 N27
1.0
   8.7581944499999995    0.0000000000000000    0.0000000000000000
  -4.3790976600000002    7.5848186100000001    0.0000000000000000
   0.0000000000000000    0.0000000000000000   20.1789679000000000
W N H
18 27 1
direct
   0.2185186000000000    0.1037035300000000    0.5664090700000000 W
   0.2230249400000000    0.4462444300000000    0.5737374400000000 W
   0.2234331300000000    0.7782938200000000    0.5721075000000000 W
   0.5538136400000000    0.1107225200000000    0.5742372100000001 W
   0.5565531600000000    0.4462444300000000    0.5737374400000000 W
   0.5567180800000000    0.7801024900000000    0.5731949200000001 W
   0.8902425500000000    0.1107225200000000    0.5742372100000001 W
   0.8874133700000000    0.4414930700000000    0.5748499000000000 W
   0.8881943600000000    0.7782938200000000    0.5721075000000000 W
   0.2218458800000000    0.1103581000000000    0.4242186600000000 W
   0.2224575300000000    0.4448950100000000    0.4284223800000000 W
   0.2220909100000000    0.7760305600000000    0.4258585800000000 W
   0.5563161000000000    0.1110091700000000    0.4285512000000000 W
   0.5557711500000000    0.4448950100000000    0.4284223800000000 W
   0.5553771100000000    0.7774205500000000    0.4279014500000000 W
   0.8880267400000000    0.1110091700000000    0.4285512000000000 W
   0.8884847000000000    0.4436357300000000    0.4287357800000000 W
   0.8872733100000000    0.7760305600000000    0.4258585800000000 W
   0.1311277700000000    0.2257715000000000    0.6320669100000000 N
   0.1121861000000000    0.5566190200000000    0.6287827600000000 N
   0.1103172100000000    0.8873014100000000    0.6262086500000000 N
   0.4279767200000000    0.2257715000000000    0.6320669100000000 N
   0.4445619600000000    0.5557909200000000    0.6288917400000000 N
   0.4427579100000000    0.8889863500000000    0.6293203700000000 N
   0.7775868100000000    0.2218406300000000    0.6306998500000000 N
   0.7777659200000000    0.5566190200000000    0.6287827600000000 N
   0.7795614400000000    0.8889863500000000    0.6293203700000000 N
   0.1104024800000000    0.2217512300000000    0.3720739000000000 N
   0.1100921400000000    0.5550673000000000    0.3717406000000000 N
   0.1108774800000000    0.8884219500000000    0.3697154200000000 N
   0.4446817500000000    0.2217512300000000    0.3720739000000000 N
   0.4446325600000000    0.5559321300000000    0.3721123100000000 N
   0.4446737600000000    0.8905166000000000    0.3717354600000000 N
   0.7776003700000000    0.2218677500000000    0.3733563200000000 N
   0.7783081600000000    0.5550673000000000    0.3717406000000000 N
   0.7791758400000000    0.8905166000000000    0.3717354600000000 N
   0.1086347500000000    0.2220960900000000    0.5016886000000000 N
   0.1096883800000000    0.5543796400000000    0.5002823900000000 N
   0.1084818200000000    0.8836306400000000    0.4979699900000000 N
   0.4467943400000000    0.2220960900000000    0.5016886000000000 N
   0.4452036200000000    0.5570742400000001    0.5007112200000000 N
   0.4459256300000000    0.8908693200000000    0.5010156300000000 N
   0.7770588300000000    0.2207846600000000    0.5023053400000000 N
   0.7780242500000000    0.5543796400000000    0.5002823900000000 N
   0.7782766800000001    0.8908693200000000    0.5010156300000000 N
   0.2798467100000000    0.2263604400000000    0.6574244100000000 H
