H1 W18 N27
1.0
   8.7581944499999995    0.0000000000000000    0.0000000000000000
  -4.3790976600000002    7.5848186100000001    0.0000000000000000
   0.0000000000000000    0.0000000000000000   20.1789679000000000
W N H
18 27 1
direct
   0.2195982100000000    0.1117407100000000    0.5709332300000000 W
   0.2244393000000000    0.4462433000000000    0.5746845300000000 W
   0.2242970800000000    0.7819271500000000    0.5747675300000000 W
   0.5588095000000000    0.1117407100000000    0.5709332300000000 W
   0.5585849899999999    0.4505029800000000    0.5708528200000000 W
   0.5579959000000000    0.7808538200000000    0.5713528800000000 W
   0.8896108400000000    0.1125546900000000    0.5714158400000000 W
   0.8884710000000000    0.4462433000000000    0.5746845300000000 W
   0.8895249100000000    0.7808538200000000    0.5713528800000000 W
   0.2228213200000000    0.1130805000000000    0.4271164600000000 W
   0.2231301200000000    0.4470649900000000    0.4277681600000000 W
   0.2231359300000000    0.7796048700000000    0.4278454200000000 W
   0.5569261800000000    0.1130805000000000    0.4271164600000000 W
   0.5568549500000000    0.4470429000000000    0.4270209400000000 W
   0.5566089100000000    0.7799788100000000    0.4260191400000000 W
   0.8901695300000000    0.1136720600000000    0.4261207900000000 W
   0.8906018600000000    0.4470649900000000    0.4277681600000000 W
   0.8900369000000000    0.7799788100000000    0.4260191400000000 W
   0.1120724500000000    0.2256727600000000    0.6285042700000000 N
   0.1123548700000000    0.5580434100000000    0.6291885699999999 N
   0.1118569500000000    0.8902313700000000    0.6285226900000001 N
   0.4457765400000000    0.2248867500000000    0.6310456400000000 N
   0.4450183700000000    0.5585402699999999    0.6284263600000000 N
   0.4450407600000000    0.8902313700000000    0.6285226900000001 N
   0.7802666500000000    0.2256727600000000    0.6285042700000000 N
   0.7801882300000000    0.5585402699999999    0.6284263600000000 N
   0.7791326200000001    0.8915989200000000    0.6272659100000000 N
   0.1130966700000000    0.2246926300000000    0.3713039000000000 N
   0.1122889800000000    0.5579116300000000    0.3718697500000000 N
   0.1130814200000000    0.8917535900000000    0.3713032700000000 N
   0.4454283000000000    0.2241902700000000    0.3723946000000000 N
   0.4453795000000000    0.5568598400000000    0.3712316200000000 N
   0.4453385000000000    0.8917535900000000    0.3713032700000000 N
   0.7782622900000000    0.2246926300000000    0.3713039000000000 N
   0.7781466700000000    0.5568598400000000    0.3712316200000000 N
   0.7789784600000000    0.8912905900000000    0.3701976200000000 N
   0.1110162600000000    0.2242126100000000    0.5000110600000000 N
   0.1123639600000000    0.5580615900000000    0.5001464500000000 N
   0.1108088300000000    0.8904806900000000    0.4999780700000000 N
   0.4455298500000000    0.2243933700000000    0.5033801400000000 N
   0.4462977400000000    0.5594334399999999    0.4999033500000000 N
   0.4463382000000000    0.8904806900000000    0.4999780700000000 N
   0.7798626800000000    0.2242126100000000    0.5000110600000000 N
   0.7798020400000000    0.5594334399999999    0.4999033500000000 N
   0.7790255699999999    0.8913848000000000    0.4987347600000000 N
   0.4456280800000000    0.2245898000000000    0.6815821100000000 H
