H1 W36 N24
1.0
   8.1412555599999994    0.0000000000000000   -0.0072088000000000
  -0.0003590100000000    8.9274485400000003   -0.2580443100000000
   0.0000000000000000    0.0000000000000000   22.7155575100000000
W N H
36 24 1
direct
   0.2301427800000000    0.1293863700000000    0.6021191600000000 W
   0.2292386600000000    0.4492969300000000    0.6024075200000000 W
   0.2286616800000000    0.8105635200000000    0.6017260000000000 W
   0.7268429199999999    0.1294228500000000    0.6021072000000000 W
   0.7277419100000000    0.4492463300000000    0.6024103200000001 W
   0.7283248700000000    0.8105573600000000    0.6016992900000000 W
   0.4779879900000000    0.2831212900000000    0.3995371800000000 W
   0.4779981200000000    0.6048453300000000    0.3980381200000000 W
   0.4780254000000000    0.9630744000000000    0.3987394200000000 W
   0.9780475700000000    0.2950134000000000    0.3981417900000000 W
   0.9780230900000000    0.6151773900000000    0.3997138800000000 W
   0.9780473300000000    0.9379788000000000    0.3981956300000000 W
   0.2262491000000000    0.1139648400000000    0.3415559100000000 W
   0.2280336600000000    0.4452070300000000    0.3398791500000000 W
   0.2295002200000000    0.7773455200000000    0.3423427300000000 W
   0.7295742600000000    0.1139802900000000    0.3415712000000000 W
   0.7277044800000000    0.4451942600000000    0.3398730200000000 W
   0.7262683000000000    0.7773536700000000    0.3423601700000000 W
   0.4786135900000000    0.2994477100000000    0.6630855300000000 W
   0.4785348600000000    0.6352965000000000    0.6558247100000000 W
   0.4786133900000000    0.9679900900000000    0.6625355900000000 W
   0.9785903500000001    0.2972579200000000    0.6609683600000000 W
   0.9785766200000000    0.6343854600000000    0.6557226500000000 W
   0.9786872400000000    0.9711171400000000    0.6605111900000000 W
   0.4783703300000000    0.2918941500000000    0.5484918400000000 W
   0.4783383600000000    0.6297685300000000    0.5475029000000000 W
   0.4784033300000000    0.9610510100000000    0.5475210800000000 W
   0.9783030300000000    0.2881612200000000    0.5480108000000000 W
   0.9783252500000000    0.6269612000000000    0.5481306600000000 W
   0.9783797500000000    0.9656902600000000    0.5472785300000000 W
   0.2280083600000000    0.1217723700000000    0.4521608900000000 W
   0.2277260100000000    0.4547181800000000    0.4533707700000000 W
   0.2281448000000000    0.7845655900000000    0.4524302700000000 W
   0.7283444500000000    0.1217987500000000    0.4521744300000000 W
   0.7286018800000000    0.4546954200000000    0.4533795000000000 W
   0.7280858000000000    0.7845596600000000    0.4524416500000000 W
   0.2278275500000000    0.3010998400000000    0.6730839100000000 N
   0.2286207200000000    0.6347425400000000    0.6643448900000000 N
   0.2276816600000000    0.9696308000000000    0.6724885500000000 N
   0.7294816000000000    0.3010729300000000    0.6730792600000000 N
   0.7285421600000000    0.6347537300000000    0.6643519000000000 N
   0.7296286500000000    0.9696193200000000    0.6725106300000000 N
   0.4778721200000000    0.1135687800000000    0.3286385800000000 N
   0.4778586800000000    0.4417180200000000    0.3286029500000000 N
   0.4778726000000000    0.7793394400000000    0.3347989700000000 N
   0.9778858700000000    0.1119025800000000    0.3342926000000000 N
   0.9778628100000000    0.4470547000000000    0.3286604100000000 N
   0.9778522900000000    0.7750581200000000    0.3293327800000000 N
   0.4782278000000000    0.1218432600000000    0.4748120000000000 N
   0.4781696300000000    0.4578303000000000    0.4735253200000000 N
   0.4782227900000000    0.7885422200000000    0.4679565800000000 N
   0.9782203900000001    0.1223255800000000    0.4687901700000000 N
   0.9781547000000000    0.4500544700000000    0.4741294700000000 N
   0.9782311700000000    0.7926488500000000    0.4739828600000000 N
   0.2282057800000000    0.2938091400000000    0.5267779500000001 N
   0.2280411100000000    0.6249753400000000    0.5328119000000000 N
   0.2279968700000000    0.9579597900000000    0.5267351100000000 N
   0.7284830200000000    0.2937997900000000    0.5267911199999999 N
   0.7285959700000000    0.6249620500000000    0.5328105900000000 N
   0.7285593200000000    0.9579595600000000    0.5267381200000000 N
   0.4787962100000000    0.1361898800000000    0.7146704800000000 H
