H1 W36 N24
1.0
   8.1412555599999994    0.0000000000000000   -0.0072088000000000
  -0.0003590100000000    8.9274485400000003   -0.2580443100000000
   0.0000000000000000    0.0000000000000000   22.7155575100000000
W N H
36 24 1
direct
   0.2259897000000000    0.1125965300000000    0.6004965600000000 W
   0.2260000600000000    0.4768896300000000    0.6004861700000000 W
   0.2255935300000000    0.7947683600000000    0.6011626500000000 W
   0.7258020700000000    0.1331958700000000    0.6026273300000000 W
   0.7258221700000000    0.4564322100000000    0.6026260100000000 W
   0.7256955800000000    0.7951660900000000    0.6040441700000000 W
   0.4770951200000000    0.2797910400000000    0.3984250700000000 W
   0.4762383700000000    0.6072734000000000    0.3974143200000000 W
   0.4762738600000000    0.9526834500000000    0.3974749800000000 W
   0.9763720900000000    0.2801894800000000    0.3973895700000000 W
   0.9770234500000000    0.6165183100000000    0.3980260700000000 W
   0.9770551700000000    0.9429442200000000    0.3979996300000000 W
   0.2265575300000000    0.1095220700000000    0.3404308600000000 W
   0.2265214900000000    0.4418105900000000    0.3403954600000000 W
   0.2276640400000000    0.7757022700000000    0.3403779000000000 W
   0.7272596000000000    0.1093557300000000    0.3402923900000000 W
   0.7271765400000000    0.4419758500000000    0.3402577500000000 W
   0.7261088200000000    0.7757356300000000    0.3410468800000000 W
   0.4670515000000000    0.2988336000000000    0.6557871700000000 W
   0.4754180700000000    0.6330272700000000    0.6600102400000000 W
   0.4754062900000000    0.9651917600000000    0.6600458200000000 W
   0.9838551500000000    0.2987785600000000    0.6557309099999999 W
   0.9758530600000000    0.6324041000000000    0.6600614400000000 W
   0.9758980700000000    0.9657947900000000    0.6600894700000000 W
   0.4766534500000000    0.2907104700000000    0.5468565600000000 W
   0.4770900000000000    0.6266191800000001    0.5476879099999999 W
   0.4770668300000000    0.9549494700000000    0.5476873799999999 W
   0.9756547200000000    0.2906815300000000    0.5469115100000000 W
   0.9751591700000000    0.6257097300000000    0.5477971700000001 W
   0.9751583300000000    0.9559497700000000    0.5477920200000000 W
   0.2264338300000000    0.1188560600000000    0.4522297500000000 W
   0.2264340900000000    0.4490647100000000    0.4522274000000000 W
   0.2261948600000000    0.7838710700000000    0.4517572900000000 W
   0.7263952299999999    0.1163089400000000    0.4518100700000000 W
   0.7263782000000000    0.4515423000000000    0.4518117200000000 W
   0.7260067800000000    0.7838578200000000    0.4520933600000000 W
   0.2253779800000000    0.2993754700000000    0.6635739500000000 N
   0.2254653200000000    0.6351892500000000    0.6718532900000000 N
   0.2255009900000000    0.9647201700000000    0.6718616100000000 N
   0.7255461200000000    0.3000780000000000    0.6743028599999999 N
   0.7255625600000000    0.6322990200000000    0.6703365400000000 N
   0.7255861400000000    0.9674543600000000    0.6704258400000001 N
   0.4770021000000000    0.1097113700000000    0.3290617100000000 N
   0.4769494100000000    0.4399173700000000    0.3291138000000000 N
   0.4769373300000000    0.7750774000000000    0.3317088900000000 N
   0.9771159600000000    0.1076554100000000    0.3305164900000000 N
   0.9770625900000000    0.4422785200000000    0.3303689200000000 N
   0.9771331599999999    0.7747896600000000    0.3290023500000000 N
   0.4767066300000000    0.1158550800000000    0.4728886900000000 N
   0.4767046600000000    0.4548666800000000    0.4728080600000000 N
   0.4765255300000000    0.7851600800000000    0.4705266600000000 N
   0.9762115099999999    0.1180164800000000    0.4710713100000000 N
   0.9761974300000000    0.4523895700000000    0.4712044300000000 N
   0.9758863400000000    0.7854593000000000    0.4731813400000000 N
   0.2261895300000000    0.2896500600000000    0.5311602800000000 N
   0.2260671500000000    0.6215121900000000    0.5254656100000000 N
   0.2260509900000000    0.9569960700000000    0.5254808900000000 N
   0.7259891900000000    0.2893822900000000    0.5265000800000000 N
   0.7261146400000000    0.6226187399999999    0.5289912000000000 N
   0.7261091600000000    0.9563363200000000    0.5289250300000000 N
   0.7245991000000001    0.3032824400000000    0.7197694700000000 H
