H1 W36 N24
1.0
   8.1412555599999994    0.0000000000000000   -0.0072088000000000
  -0.0003590100000000    8.9274485400000003   -0.2580443100000000
   0.0000000000000000    0.0000000000000000   22.7155575100000000
W N H
36 24 1
direct
   0.2311547600000000    0.1408912700000000    0.6016659300000000 W
   0.2328970900000000    0.4612641500000000    0.6015151800000000 W
   0.2310751500000000    0.7817618500000000    0.6017116500000000 W
   0.7306268200000000    0.1408233300000000    0.6016764400000000 W
   0.7289663000000000    0.4612419800000000    0.6015095200000000 W
   0.7307130300000000    0.7818490000000000    0.6017188300000000 W
   0.4797433900000000    0.2829541100000000    0.3987020200000000 W
   0.4797453200000000    0.6106897400000000    0.3987012400000000 W
   0.4797289600000000    0.9465322600000000    0.3973486400000000 W
   0.9796697000000000    0.2689092500000000    0.3979642000000000 W
   0.9796853000000000    0.6245126900000000    0.3979213600000000 W
   0.9796786000000000    0.9467797300000000    0.3987830000000000 W
   0.2298104600000000    0.1082792400000000    0.3405481500000000 W
   0.2279430800000000    0.4425346700000000    0.3419271800000000 W
   0.2297904000000000    0.7766250300000000    0.3405124200000000 W
   0.7289644800000000    0.1083032800000000    0.3405287700000000 W
   0.7309446100000000    0.4425303700000000    0.3419134500000000 W
   0.7289619500000000    0.7765773600000000    0.3404944500000000 W
   0.4812444200000000    0.2989672400000000    0.6619849400000000 W
   0.4812436700000000    0.6326499000000000    0.6619843399999999 W
   0.4811433600000000    0.9653679600000000    0.6556463800000000 W
   0.9811871000000000    0.3021008800000000    0.6601842300000000 W
   0.9811921200000000    0.6290740700000000    0.6601481100000000 W
   0.9810296700000000    0.9654050800000000    0.6557577600000000 W
   0.4804564900000000    0.2916851900000000    0.5472483600000000 W
   0.4804774800000000    0.6226876500000000    0.5472509600000000 W
   0.4806173200000000    0.9570754800000000    0.5466857300000000 W
   0.9806085100000000    0.2953299800000000    0.5472496900000000 W
   0.9806213800000000    0.6191217100000000    0.5472382300000000 W
   0.9806914300000000    0.9572096000000000    0.5477506000000000 W
   0.2299293200000000    0.1150110000000000    0.4523750900000000 W
   0.2302170600000000    0.4508925000000000    0.4520318900000000 W
   0.2299470000000000    0.7867105300000000    0.4523782900000000 W
   0.7301072900000000    0.1150112700000000    0.4523788500000000 W
   0.7298442900000000    0.4508909700000000    0.4520293500000000 W
   0.7301790100000000    0.7867146500000000    0.4523765400000000 W
   0.2304112300000000    0.3009729200000000    0.6718652700000000 N
   0.2304136600000000    0.6320204400000000    0.6718660400000001 N
   0.2311491200000000    0.9659787200000000    0.6641554200000001 N
   0.7322274400000000    0.3009129200000000    0.6718545100000000 N
   0.7322350700000000    0.6320952800000000    0.6718553600000000 N
   0.7311060900000000    0.9659837999999999    0.6642643000000000 N
   0.4793170200000000    0.1098896800000000    0.3307925500000000 N
   0.4793783200000000    0.4416476200000000    0.3302242000000000 N
   0.4793210700000000    0.7735022600000000    0.3307286200000000 N
   0.9792939899999999    0.1061237000000000    0.3285745900000000 N
   0.9793991200000000    0.4419779100000000    0.3340662100000000 N
   0.9792980500000000    0.7770937600000000    0.3285476100000000 N
   0.4800348200000000    0.1177190700000000    0.4718683600000000 N
   0.4801051600000000    0.4520175100000000    0.4739476100000000 N
   0.4800607800000000    0.7859730500000000    0.4718953900000000 N
   0.9801115000000000    0.1226519800000000    0.4737065500000000 N
   0.9800639500000000    0.4518231100000000    0.4689806300000000 N
   0.9801353100000000    0.7814035100000000    0.4736798300000000 N
   0.2302674100000000    0.2875490100000000    0.5263068800000000 N
   0.2302679600000000    0.6246380900000000    0.5262850000000000 N
   0.2300274400000000    0.9563330500000000    0.5321051800000000 N
   0.7306770600000000    0.2875258300000000    0.5263414700000000 N
   0.7306615900000000    0.6246573399999999    0.5263247000000000 N
   0.7311447700000000    0.9563301800000000    0.5320122500000000 N
   0.4810187300000000    0.4696540800000000    0.7131566300000000 H
