H1 W36 N27
1.0
   8.9183705999999994    0.0000000000000000    0.0000000000000000
  -4.4591852999999997    7.7235354899999997    0.0000000000000000
   0.0000000000000000    0.0000000000000000   24.2330780600000004
W N H
36 27 1
direct
   0.1122369300000000    0.2250757900000000    0.4440724100000000 W
   0.1131716800000000    0.5596766900000000    0.4427827400000000 W
   0.1115639600000000    0.8898893900000000    0.4438048800000000 W
   0.4453871200000000    0.2241075700000000    0.4447072700000000 W
   0.4460763000000000    0.5592274500000000    0.4436973700000000 W
   0.4449920900000000    0.8898893900000000    0.4438048800000000 W
   0.7795055300000000    0.2250757900000000    0.4440724100000000 W
   0.7798178200000000    0.5592274500000000    0.4436973700000000 W
   0.7789461200000000    0.8912255800000000    0.4445619900000000 W
   0.2243731900000000    0.1125561000000000    0.5553823300000000 W
   0.2212867100000000    0.4447991700000000    0.5553432300000000 W
   0.2198071700000000    0.7729476700000000    0.5554005400000001 W
   0.5548495800000000    0.1125561000000000    0.5553823300000000 W
   0.5554713900000000    0.4442761100000000    0.5556187299999999 W
   0.5542764000000000    0.7765143200000000    0.5553388000000000 W
   0.8898272400000000    0.1129878200000000    0.5547359500000000 W
   0.8901791200000000    0.4447991700000000    0.5553432300000000 W
   0.8889045900000000    0.7765143200000000    0.5553388000000000 W
  -0.0005943600000000   -0.0003244400000000    0.3515781700000000 W
   0.0000091300000000    0.3333516000000000    0.3511046900000000 W
  -0.0001613900000000    0.6665937400000000    0.3510026400000000 W
   0.3337161200000000    0.0007655800000000    0.3515104800000000 W
   0.3337592700000000    0.3330501700000000    0.3517406900000000 W
   0.3334217900000000    0.6665937400000000    0.3510026400000000 W
   0.6669365800000000   -0.0003244400000000    0.3515781700000000 W
   0.6659575700000000    0.3330501700000000    0.3517406900000000 W
   0.6667736700000000    0.6668806700000000    0.3515136300000000 W
   0.0018254700000000    0.0037817600000000    0.6490670900000000 W
   0.0029050400000000    0.3391434200000000    0.6479748800000000 W
   0.0036919300000000    0.6707545800000000    0.6480578700000000 W
   0.3335411700000000    0.0004156700000000    0.6472430900000000 W
   0.3327492900000000    0.3409776700000000    0.6474452600000000 W
   0.3337293100000000    0.6707545800000000    0.6480578700000000 W
   0.6686229500000000    0.0037817600000000    0.6490670900000000 W
   0.6748950500000001    0.3409776700000000    0.6474452600000000 W
   0.6686190000000000    0.6705713400000000    0.6491832400000001 W
   0.0014395500000000    0.0008665800000000    0.5000831300000000 N
   0.0016499600000000    0.3366332600000000    0.4988401400000000 N
   0.0005310300000000    0.6670677400000000    0.4991342700000000 N
   0.3324808100000000   -0.0017050400000000    0.5002458900000000 N
   0.3338399800000000    0.3360674500000000    0.4999411000000000 N
   0.3332033800000000    0.6670677400000000    0.4991342700000000 N
   0.6660937000000000    0.0008665800000000    0.5000831300000000 N
   0.6688941400000000    0.3360674500000000    0.4999411000000000 N
   0.6668164800000000    0.6669662900000000    0.5000285900000000 N
   0.2216522100000000    0.1108832500000000    0.3104593900000000 N
   0.2225157300000000    0.4435203100000000    0.3103139300000000 N
   0.2228819500000000    0.7790972300000000    0.3100732000000000 N
   0.5558977100000000    0.1108832500000000    0.3104593900000000 N
   0.5556609400000000    0.4446552000000000    0.3104682200000000 N
   0.5561981100000000    0.7785373100000000    0.3101247400000000 N
   0.8888556200000000    0.1110445600000000    0.3102532000000000 N
   0.8876712500000000    0.4435203100000000    0.3103139300000000 N
   0.8890058600000000    0.7785373100000000    0.3101247400000000 N
   0.1140862100000000    0.2232253600000000    0.6900864400000000 N
   0.1127952900000000    0.5589239200000000    0.6902833700000000 N
   0.1144857800000000    0.8972104900000000    0.6899654200000001 N
   0.4459322400000000    0.2251978100000000    0.6949220900000000 N
   0.4487893000000000    0.5580967600000000    0.6903744800000000 N
   0.4493913800000000    0.8972104900000000    0.6899654200000001 N
   0.7758058100000000    0.2232253600000000    0.6900864400000000 N
   0.7759741200000000    0.5580967600000000    0.6903744800000000 N
   0.7799928500000000    0.8933190400000000    0.6893014200000001 N
   0.4463880500000000    0.2261094500000000    0.7372677700000000 H
