W2 N4
1.0
   2.9555410499999999    0.0000000000000000   -0.0009397700000000
  -1.4729643100000001    2.5640900700000002    0.0001038300000000
   0.0000000000000000    0.0000000000000000   21.1017816499999995
W N
2 4
direct
   0.3911614400000000    0.0335391100000000    0.5945215000000000 W
   0.3909474300000000    0.0335344800000000    0.4054766200000000 W
   0.0582741600000000    0.3673244900000000    0.4666558500000000 N
   0.0582219000000000    0.3672910100000000    0.5333436300000000 N
   0.0553855400000000    0.3662077500000000    0.3552198500000000 N
   0.0558275200000000    0.3662601500000000    0.6447825500000000 N
