H1 W18 N27
1.0
   8.3378969099999996    0.0000000000000000   -0.6339652200000000
  -0.0216028500000000    8.3473862400000005   -0.3007192200000000
   0.0000000000000000    0.0000000000000000   19.4415438899999984
W N H
18 27 1
direct
   0.0082888800000000   -0.0005173000000000    0.5785357300000000 W
   0.0046506400000000    0.3349143400000000    0.5795314800000000 W
   0.0083193000000000    0.6701906500000000    0.5786093600000000 W
   0.3411633300000000    0.0022103800000000    0.5788311300000000 W
   0.3419876200000000    0.3352925500000000    0.5830498200000001 W
   0.3411784500000000    0.6676197900000000    0.5788473700000000 W
   0.6740727700000000   -0.0005552600000000    0.5786076999999999 W
   0.6779570200000000    0.3349222900000000    0.5796634200000000 W
   0.6740410700000000    0.6702387100000000    0.5786733700000000 W
   0.1460271800000000    0.1550291200000000    0.4222191600000000 W
   0.1460507800000000    0.4883218200000000    0.4223010900000000 W
   0.1469132800000000    0.8214978800000000    0.4197102600000000 W
   0.4809743300000000    0.1550760900000000    0.4222344000000000 W
   0.4809883600000000    0.4882816700000000    0.4223071500000000 W
   0.4793430600000000    0.8214970700000001    0.4197452900000000 W
   0.8131540500000000    0.1540733000000000    0.4204594900000000 W
   0.8131717899999999    0.4890389800000000    0.4205133200000000 W
   0.8131146000000000    0.8215154600000000    0.4198878800000000 W
   0.3068828700000000    0.3185465700000000    0.3847116600000000 N
   0.3065586500000000    0.6501439700000000    0.3829528100000000 N
   0.3065466500000000    0.9866045500000000    0.3828815300000000 N
   0.6397784399999999    0.3184728000000000    0.3834447200000000 N
   0.6393673500000000    0.6509773800000000    0.3823801000000000 N
   0.6393473900000000    0.9857382900000000    0.3823293800000000 N
   0.9733960400000000    0.3184859000000000    0.3835051200000000 N
   0.9736832399999999    0.6509919500000000    0.3824431600000000 N
   0.9736546000000000    0.9857318100000000    0.3823781800000000 N
   0.1774892200000000    0.1672187100000000    0.6157338200000000 N
   0.1776008400000000    0.5086661600000000    0.6157876600000000 N
   0.1825034000000000    0.8381380800000000    0.6172946300000000 N
   0.5180133099999999    0.1671528500000000    0.6158035600000000 N
   0.5179062000000000    0.5087422500000000    0.6158587599999999 N
   0.5133801099999999    0.8381164200000000    0.6173382700000000 N
   0.8479508200000000    0.1705123300000000    0.6166188400000000 N
   0.8479521900000000    0.5054983100000000    0.6166446300000000 N
   0.8481825800000000    0.8381562400000000    0.6177267500000000 N
   0.1557421800000000    0.3282642900000000    0.5013241400000000 N
   0.1601443900000000    0.6638920200000000    0.4996092800000000 N
   0.1601711300000000    0.9925470000000000    0.4995620300000000 N
   0.4992970000000000    0.3282818900000000    0.5014019900000000 N
   0.4945079900000000    0.6638249800000000    0.4996557900000000 N
   0.4944549800000000    0.9925978800000000    0.4996158800000000 N
   0.8270191400000000    0.3281909300000000    0.4999972000000000 N
   0.8271158100000000    0.6632617100000000    0.4994723700000000 N
   0.8270925300000000    0.9931380800000000    0.4994151000000000 N
   0.3583252900000000    0.3417877000000000    0.6722700700000001 H
