H1 W18 N27
1.0
   8.3378969099999996    0.0000000000000000   -0.6339652200000000
  -0.0216028500000000    8.3473862400000005   -0.3007192200000000
   0.0000000000000000    0.0000000000000000   19.4415438899999984
W N H
18 27 1
direct
   0.0025731700000000   -0.0007474600000000    0.5781807400000000 W
   0.0025887600000000    0.3369773900000000    0.5781719000000000 W
   0.0069120400000000    0.6681915400000000    0.5789097500000000 W
   0.3415451100000000   -0.0007335900000000    0.5781966600000000 W
   0.3415319500000000    0.3369696000000000    0.5782034900000000 W
   0.3375001800000000    0.6681837600000000    0.5789052800000000 W
   0.6721880400000000    0.0014529200000000    0.5788999000000000 W
   0.6721939800000000    0.3349028100000000    0.5788943300000000 W
   0.6721553000000000    0.6681495200000001    0.5785635000000000 W
   0.1441812300000000    0.1549007400000000    0.4201475000000000 W
   0.1443823800000000    0.4878729100000000    0.4213399700000000 W
   0.1443908500000000    0.8221329200000000    0.4213484000000000 W
   0.4777850500000000    0.1548823100000000    0.4199324400000000 W
   0.4777269700000000    0.4884801300000000    0.4202600600000000 W
   0.4777293200000000    0.8213330200000000    0.4202650800000000 W
   0.8105029600000000    0.1548845800000000    0.4199270700000000 W
   0.8106798700000000    0.4884870600000000    0.4202562900000000 W
   0.8106775100000000    0.8213416100000001    0.4202607200000000 W
   0.3039904300000000    0.3188627700000000    0.3828893200000000 N
   0.3037621500000000    0.6518053300000000    0.3830269700000000 N
   0.3039877400000000    0.9847110700000000    0.3828965600000000 N
   0.6374003499999999    0.3184929300000000    0.3817517000000000 N
   0.6375341500000000    0.6517554600000000    0.3824620600000000 N
   0.6374040100000000    0.9848892800000000    0.3817523900000000 N
   0.9712243900000000    0.3188649400000000    0.3828875000000000 N
   0.9714951200000000    0.6518107000000000    0.3830213500000000 N
   0.9712232900000000    0.9847205700000000    0.3828922600000000 N
   0.1798336900000000    0.1718039700000000    0.6225219100000000 N
   0.1790928900000000    0.5034940500000000    0.6180297500000000 N
   0.1790875000000000    0.8394036700000000    0.6180362400000000 N
   0.5102557400000000    0.1713936700000000    0.6174684200000000 N
   0.5123324000000000    0.5049708200000000    0.6169667700000000 N
   0.5123286100000000    0.8377403800000000    0.6169619100000000 N
   0.8477519000000000    0.1714046400000000    0.6174585500000001 N
   0.8454928000000000    0.5049780300000000    0.6169645600000000 N
   0.8454773900000000    0.8377429000000000    0.6169674800000000 N
   0.1583880700000000    0.3257504900000000    0.5004908700000000 N
   0.1582961200000000    0.6615952500000000    0.5000129000000000 N
   0.1583710400000000    0.9975295300000000    0.5004992700000001 N
   0.4935402100000000    0.3276872300000000    0.4992979400000000 N
   0.4921505100000000    0.6615621900000000    0.4997012300000000 N
   0.4935307800000000    0.9953865100000000    0.4992980700000000 N
   0.8227553300000000    0.3277020500000000    0.4992871500000000 N
   0.8243162000000001    0.6615734599999999    0.4997002400000000 N
   0.8227514900000000    0.9953882400000000    0.4992906700000000 N
   0.1889283200000000    0.1760367400000000    0.6754898200000000 H
