W2 N3
1.0
   2.7792989700000001    0.0000000000000000   -0.2113217400000000
  -0.0072009500000000    2.7824620800000002   -0.1002397400000000
   0.0000000000000000    0.0000000000000000   19.4415438899999984
W N
2 3
direct
   0.0166306800000000    0.0040219100000000    0.5786294400000001 W
   0.4328403800000000    0.4653832100000000    0.4213514600000000 W
   0.9125559200000000    0.9558312000000000    0.3829481800000000 N
   0.5369772900000001    0.5135284000000000    0.6170690900000000 N
   0.4749477300000000    0.9849752899999999    0.5000018200000000 N
