W2 N5
1.0
   2.9188006899999999    0.0000000000000000    0.0864409500000000
  -0.0011628700000000    2.8854036700000001    0.0138727400000000
   0.0000000000000000    0.0000000000000000   22.6308834700000006
W N
2 5
direct
   0.3153618100000000    0.2993479200000000    0.6390302200000000 W
   0.3548745800000000    0.3057955100000000    0.4765818000000000 W
   0.3954261800000000    0.3124375800000000    0.3244418300000000 N
   0.3814430800000000    0.3101612700000000    0.3742940200000000 N
   0.3346181400000000    0.3024595700000000    0.5595912900000000 N
   0.8102624000000000    0.7984992400000001    0.6608692500000000 N
   0.8575868100000000    0.8062339200000000    0.4651916000000000 N
