H1 W36 N12
1.0
   8.2911786000000003    0.0000000000000000    0.0417049200000000
  -0.0029166900000000    8.5388672400000001   -0.0752026800000000
   0.0000000000000000    0.0000000000000000   22.1021973100000011
W N H
36 12 1
direct
   0.3754879400000000    0.2418391633333334    0.3512526100000000 W
   0.3754879400000000    0.5751724966666667    0.3512526100000000 W
   0.3754879400000000    0.9085058300000001    0.3512526100000000 W
   0.8754879399999999    0.2418391633333334    0.3512526100000001 W
   0.8754879399999999    0.5751724966666667    0.3512526100000000 W
   0.8754879400000000    0.9085058300000001    0.3512526100000000 W
   0.3739037600000000    0.1824922466666667    0.4693327400000000 W
   0.3739037600000000    0.5158255800000000    0.4693327399999999 W
   0.3739037600000000    0.8491589133333334    0.4693327399999999 W
   0.8739037599999999    0.1824922466666667    0.4693327399999999 W
   0.8739037599999999    0.5158255800000000    0.4693327400000000 W
   0.8739037599999999    0.8491589133333334    0.4693327400000000 W
   0.3723136850000000    0.0815304866666667    0.5887621000000000 W
   0.3723136850000000    0.4148638200000000    0.5887620999999998 W
   0.3723136850000000    0.7481971533333334    0.5887620999999998 W
   0.8723136849999999    0.0815304866666667    0.5887620999999998 W
   0.8723136849999998    0.4148638200000000    0.5887620999999998 W
   0.8723136849999999    0.7481971533333334    0.5887620999999998 W
   0.1214596800000000    0.2396773866666667    0.6487686400000000 W
   0.1214596800000000    0.5730107200000001    0.6487686400000000 W
   0.1214596800000000    0.9063440533333335    0.6487686400000000 W
   0.6214596800000000    0.2396773866666667    0.6487686400000000 W
   0.6214596799999998    0.5730107200000001    0.6487686400000000 W
   0.6214596800000000    0.9063440533333335    0.6487686400000000 W
   0.1230253000000000    0.2991220433333334    0.5306465400000000 W
   0.1230253000000000    0.6324553766666667    0.5306465400000000 W
   0.1230253000000000    0.9657887100000000    0.5306465399999999 W
   0.6230253000000000    0.2991220433333334    0.5306465400000000 W
   0.6230252999999999    0.6324553766666667    0.5306465400000000 W
   0.6230253000000000    0.9657887100000000    0.5306465400000000 W
   0.1246099100000000    0.0666772733333333    0.4112391000000000 W
   0.1246099100000000    0.4000106066666667    0.4112391000000000 W
   0.1246099100000000    0.7333439400000000    0.4112391000000000 W
   0.6246099100000000    0.0666772733333333    0.4112391000000000 W
   0.6246099099999999    0.4000106066666667    0.4112391000000000 W
   0.6246099100000000    0.7333439400000000    0.4112391000000000 W
   0.1256172750000000    0.2341674766666667    0.3400005800000000 N
   0.1256172750000000    0.5675008100000001    0.3400005800000000 N
   0.1256172750000000    0.9008341433333333    0.3400005800000000 N
   0.6256172749999999    0.2341674766666667    0.3400005800000000 N
   0.6256172750000000    0.5675008100000001    0.3400005800000000 N
   0.6256172750000000    0.9008341433333333    0.3400005800000000 N
   0.3713359500000000    0.2473882566666667    0.6599976800000000 N
   0.3713359500000000    0.5807215900000000    0.6599976799999999 N
   0.3713359500000000    0.9140549233333334    0.6599976799999999 N
   0.8713359500000000    0.2473882566666667    0.6599976799999999 N
   0.8713359500000000    0.5807215900000000    0.6599976799999999 N
   0.8713359500000000    0.9140549233333334    0.6599976799999999 N
   0.4542215082551418    0.4680713481161379    0.7026353080107730 H
