H1 W18 N27
1.0
   8.7581944500000013    0.0000000000000000    0.0000000000000000
  -4.3790976600000002    7.5848186099999992    0.0000000000000000
   0.0000000000000000    0.0000000000000000   20.1789679000000000
W N H
18 27 1
direct
   0.2222223333333333    0.1111110000000000    0.5727238700000000 W
   0.2222223333333333    0.4444443333333333    0.5727238700000000 W
   0.2222223333333333    0.7777776666666666    0.5727238700000000 W
   0.5555556666666667    0.1111110000000000    0.5727238700000000 W
   0.5555556666666666    0.4444443333333333    0.5727238700000000 W
   0.5555556666666667    0.7777776666666666    0.5727238700000000 W
   0.8888889999999999    0.1111110000000000    0.5727238700000000 W
   0.8888889999999998    0.4444443333333333    0.5727238700000000 W
   0.8888890000000000    0.7777776666666666    0.5727238700000000 W
   0.2222223333333333    0.1111110000000000    0.4272761300000000 W
   0.2222223333333333    0.4444443333333333    0.4272761300000000 W
   0.2222223333333333    0.7777776666666666    0.4272761300000000 W
   0.5555556666666667    0.1111110000000000    0.4272761300000000 W
   0.5555556666666666    0.4444443333333333    0.4272761300000000 W
   0.5555556666666667    0.7777776666666666    0.4272761300000000 W
   0.8888889999999999    0.1111110000000000    0.4272761300000000 W
   0.8888889999999998    0.4444443333333333    0.4272761300000000 W
   0.8888890000000000    0.7777776666666666    0.4272761300000000 W
   0.1111110000000000    0.2222223333333334    0.6283903400000000 N
   0.1111110000000000    0.5555556666666667    0.6283903400000000 N
   0.1111110000000000    0.8888889999999999    0.6283903400000000 N
   0.4444443333333333    0.2222223333333334    0.6283903400000000 N
   0.4444443333333333    0.5555556666666667    0.6283903400000000 N
   0.4444443333333333    0.8888889999999999    0.6283903400000000 N
   0.7777776666666666    0.2222223333333334    0.6283903400000000 N
   0.7777776666666666    0.5555556666666667    0.6283903400000000 N
   0.7777776666666665    0.8888889999999999    0.6283903400000000 N
   0.1111110000000000    0.2222223333333334    0.3716096600000000 N
   0.1111110000000000    0.5555556666666667    0.3716096600000000 N
   0.1111110000000000    0.8888889999999999    0.3716096600000000 N
   0.4444443333333333    0.2222223333333334    0.3716096600000000 N
   0.4444443333333333    0.5555556666666667    0.3716096600000000 N
   0.4444443333333333    0.8888889999999999    0.3716096600000000 N
   0.7777776666666666    0.2222223333333334    0.3716096600000000 N
   0.7777776666666666    0.5555556666666667    0.3716096600000000 N
   0.7777776666666665    0.8888889999999999    0.3716096600000000 N
   0.1111110000000000    0.2222223333333334    0.5000000000000000 N
   0.1111110000000000    0.5555556666666667    0.5000000000000000 N
   0.1111110000000000    0.8888889999999999    0.5000000000000000 N
   0.4444443333333333    0.2222223333333334    0.5000000000000000 N
   0.4444443333333333    0.5555556666666667    0.5000000000000000 N
   0.4444443333333333    0.8888889999999999    0.5000000000000000 N
   0.7777776666666666    0.2222223333333334    0.5000000000000000 N
   0.7777776666666666    0.5555556666666667    0.5000000000000000 N
   0.7777776666666665    0.8888889999999999    0.5000000000000000 N
   0.5555554444444445    0.4444445555555557    0.6779468884298134 H
