H1 W18 N36
1.0
   8.8666231500000006    0.0000000000000000   -0.0028193100000000
  -4.4188929300000002    7.6922702100000002    0.0003114900000000
   0.0000000000000000    0.0000000000000000   21.1017816499999995
W N H
18 36 1
direct
   0.1308989800000000    0.0119779600000000    0.5951650300000000 W
   0.1309953100000000    0.3443096200000000    0.5951881800000000 W
   0.1304151400000000    0.6778325200000000    0.5950942100000000 W
   0.4637837100000000    0.0121891600000000    0.5952025399999999 W
   0.4638597300000000    0.3445027000000000    0.5915520900000000 W
   0.4637268000000000    0.6768733900000000    0.5952127500000000 W
   0.7971392400000000    0.0111809200000000    0.5943032700000001 W
   0.7958489200000000    0.3440314900000000    0.5952329300000000 W
   0.7959194900000000    0.6772012300000000    0.5952222700000001 W
   0.1297076800000000    0.0105619700000000    0.4056491700000000 W
   0.1297515500000000    0.3445929100000000    0.4056685300000000 W
   0.1302068900000000    0.6777485000000000    0.4061147800000000 W
   0.4636439700000000    0.0109905200000000    0.4056815000000000 W
   0.4638867200000000    0.3447088100000000    0.4052490900000000 W
   0.4635576300000000    0.6780076600000000    0.4057070300000000 W
   0.7968566800000000    0.0110759200000000    0.4059699700000000 W
   0.7968467100000000    0.3442076400000000    0.4057686900000000 W
   0.7968120900000000    0.6780387700000000    0.4057672900000000 W
   0.0194534200000000    0.1224897000000000    0.4670746300000000 N
   0.0189490200000000    0.4556690000000000    0.4673906000000000 N
   0.0189544900000000    0.7887489200000000    0.4673752900000000 N
   0.3519448800000000    0.1217927100000000    0.4666780200000000 N
   0.3519882300000000    0.4555737200000000    0.4667023400000000 N
   0.3525293200000000    0.7890120500000000    0.4673540800000000 N
   0.6855787200000000    0.1223118000000000    0.4671156600000000 N
   0.6864824600000000    0.4559806100000000    0.4667495200000000 N
   0.6855458400000000    0.7887566400000000    0.4671254100000000 N
   0.0190881800000000    0.1223063100000000    0.5335112600000000 N
   0.0188872300000000    0.4553813300000000    0.5337923999999999 N
   0.0189221800000000    0.7889300700000000    0.5337734200000001 N
   0.3517923100000000    0.1213285600000000    0.5331006800000000 N
   0.3518657000000000    0.4558896800000000    0.5331351500000000 N
   0.3529098600000000    0.7891815000000000    0.5337751600000000 N
   0.6857584500000000    0.1220177500000000    0.5335588700000000 N
   0.6869944500000000    0.4562525100000000    0.5331605200000000 N
   0.6857249000000000    0.7891885500000000    0.5335691299999999 N
   0.0193351900000000    0.1224630400000000    0.3552508300000000 N
   0.0189868300000000    0.4559383300000000    0.3553505900000000 N
   0.0190225400000000    0.7885565500000000    0.3553598600000000 N
   0.3519703000000000    0.1223149600000000    0.3550336700000000 N
   0.3520259300000000    0.4550547600000000    0.3550343100000000 N
   0.3521125700000000    0.7888271600000000    0.3553810600000000 N
   0.6854669799999999    0.1221685800000000    0.3552287700000000 N
   0.6858386200000000    0.4556686700000000    0.3549834600000000 N
   0.6854080000000000    0.7888082300000000    0.3552346900000000 N
   0.0168839700000000    0.1212352600000000    0.6456504300000000 N
   0.0188925000000000    0.4553829900000000    0.6456663800000000 N
   0.0189841700000000    0.7890324500000000    0.6456554799999999 N
   0.3496262400000000    0.1168496900000000    0.6465082100000000 N
   0.3497759200000000    0.4582436000000000    0.6466166400000000 N
   0.3532461600000000    0.7894214600000000    0.6456678000000000 N
   0.6870458900000000    0.1207774100000000    0.6456607500000000 N
   0.6917792100000000    0.4586940300000000    0.6464824900000000 N
   0.6870013000000000    0.7917398200000000    0.6456593000000000 N
   0.4619133300000000    0.3447750900000000    0.6731060200000000 H
