H1 W18 N36
1.0
   8.8666231500000006    0.0000000000000000   -0.0028193100000000
  -4.4188929300000002    7.6922702100000002    0.0003114900000000
   0.0000000000000000    0.0000000000000000   21.1017816499999995
W N H
18 36 1
direct
   0.1274490500000000    0.0085576600000000    0.5948097600000000 W
   0.1234253000000000    0.3394716400000000    0.5929693700000001 W
   0.1278577000000000    0.6741735500000000    0.5947751000000000 W
   0.4609191000000000    0.0083711500000000    0.5941735700000000 W
   0.4624490300000000    0.3395825400000000    0.5929224600000000 W
   0.4619411400000000    0.6774960900000000    0.5929928200000000 W
   0.7935010700000000    0.0084439100000000    0.5942701000000000 W
   0.7931506400000000    0.3398381500000000    0.5942582400000000 W
   0.7925144300000000    0.6740817400000000    0.5947671200000000 W
   0.1269514900000000    0.0078159000000000    0.4053971600000000 W
   0.1272179700000000    0.3419853900000000    0.4055895800000000 W
   0.1274242400000000    0.6755136000000000    0.4053435700000000 W
   0.4603014700000000    0.0085068300000000    0.4048448300000000 W
   0.4609562400000000    0.3420233800000000    0.4055606500000000 W
   0.4606658400000000    0.6749076100000000    0.4056260600000000 W
   0.7945072000000000    0.0086181700000000    0.4050000600000000 W
   0.7941023800000000    0.3418323000000000    0.4049254800000000 W
   0.7943657500000000    0.6755847900000000    0.4053072700000000 W
   0.0162471700000000    0.1193162000000000    0.4665194200000000 N
   0.0155991100000000    0.4531195200000000    0.4664763900000000 N
   0.0160326100000000    0.7858759900000000    0.4670000100000000 N
   0.3493872200000000    0.1192808700000000    0.4665128600000000 N
   0.3492824900000000    0.4523760000000000    0.4677343800000000 N
   0.3500149400000000    0.7868754000000000    0.4664682100000000 N
   0.6827188100000000    0.1191260500000000    0.4662986900000000 N
   0.6837791800000000    0.4529039600000000    0.4665092700000000 N
   0.6831572400000000    0.7870677000000000    0.4665050200000000 N
   0.0156983900000000    0.1186270900000000    0.5328047200000000 N
   0.0151643800000000    0.4526309500000000    0.5327853900000000 N
   0.0156700000000000    0.7852350400000000    0.5334744300000001 N
   0.3491465100000000    0.1188031000000000    0.5327999100000000 N
   0.3488374900000000    0.4515990800000000    0.5347163100000000 N
   0.3497732300000000    0.7865656100000000    0.5327728700000000 N
   0.6823196900000000    0.1186290700000000    0.5326474900000000 N
   0.6835264900000000    0.4524043900000000    0.5328124700000000 N
   0.6828894400000000    0.7866077200000000    0.5328258299999999 N
   0.0172757300000000    0.1209586700000000    0.3548263300000000 N
   0.0165140100000000    0.4533378500000000    0.3548143300000000 N
   0.0162463900000000    0.7863044700000000    0.3547183400000000 N
   0.3500162100000000    0.1208431700000000    0.3548511600000000 N
   0.3495153800000000    0.4528238900000000    0.3556330400000000 N
   0.3506681900000000    0.7866191000000000    0.3548519300000000 N
   0.6830316200000000    0.1195459100000000    0.3544202200000000 N
   0.6829772200000001    0.4530457800000000    0.3548673200000000 N
   0.6822813599999999    0.7868179300000000    0.3548787900000000 N
   0.0165370100000000    0.1192769800000000    0.6451126700000001 N
   0.0158895400000000    0.4523034000000000    0.6450921200000000 N
   0.0150495400000000    0.7844288100000000    0.6452098300000000 N
   0.3487103800000000    0.1194808800000000    0.6450977000000000 N
   0.3485095800000000    0.4512301200000000    0.6489021000000000 N
   0.3495027100000000    0.7849516000000000    0.6450990000000000 N
   0.6816993600000000    0.1178960400000000    0.6451366300000000 N
   0.6823733900000000    0.4522327100000000    0.6451188100000000 N
   0.6813358200000000    0.7848639100000000    0.6451023900000000 N
   0.3482289600000000    0.4504302400000000    0.6972753000000000 H
