H1 W27 N36
1.0
   8.5378185000000002    0.0000000000000000    0.0314463900000000
  -4.2205377899999998    7.7357082300000002   -0.6490793699999999
   0.0000000000000000    0.0000000000000000   22.9756335599999986
W N H
27 36 1
direct
   0.0923464633333333    0.0049361366666667    0.3739156499999999 W
   0.0923464633333334    0.3382694700000001    0.3739156499999999 W
   0.0923464633333334    0.6716028033333333    0.3739156499999999 W
   0.4256797966666667    0.0049361366666667    0.3739156499999999 W
   0.4256797966666667    0.3382694700000001    0.3739156499999999 W
   0.4256797966666667    0.6716028033333333    0.3739156499999999 W
   0.7590131299999999    0.0049361366666667    0.3739156499999999 W
   0.7590131300000000    0.3382694700000001    0.3739156499999999 W
   0.7590131300000000    0.6716028033333333    0.3739156500000000 W
   0.1272552233333333    0.0910723033333333    0.6273310700000000 W
   0.1272552233333334    0.4244056366666667    0.6273310700000000 W
   0.1272552233333334    0.7577389700000001    0.6273310699999999 W
   0.4605885566666667    0.0910723033333333    0.6273310700000000 W
   0.4605885566666666    0.4244056366666667    0.6273310699999999 W
   0.4605885566666668    0.7577389700000001    0.6273310700000000 W
   0.7939218900000000    0.0910723033333333    0.6273310699999999 W
   0.7939218900000000    0.4244056366666667    0.6273310700000000 W
   0.7939218900000001    0.7577389700000001    0.6273310700000000 W
   0.1079014066666667    0.0418097300000000    0.5001704700000000 W
   0.1079014066666667    0.3751430633333334    0.5001704700000000 W
   0.1079014066666667    0.7084763966666667    0.5001704700000000 W
   0.4412347400000000    0.0418097300000000    0.5001704700000000 W
   0.4412347400000000    0.3751430633333334    0.5001704700000000 W
   0.4412347400000001    0.7084763966666667    0.5001704700000000 W
   0.7745680733333333    0.0418097300000000    0.5001704700000000 W
   0.7745680733333333    0.3751430633333334    0.5001704700000000 W
   0.7745680733333333    0.7084763966666667    0.5001704700000000 W
   0.2470139133333333    0.3076565133333334    0.6739974100000000 N
   0.2470139133333334    0.6409898466666668    0.6739974099999999 N
   0.2470139133333334    0.9743231800000002    0.6739974100000000 N
   0.5803472466666666    0.3076565133333334    0.6739974099999999 N
   0.5803472466666667    0.6409898466666668    0.6739974100000000 N
   0.5803472466666667    0.9743231800000002    0.6739974099999999 N
   0.9136805800000001    0.3076565133333334    0.6739974100000000 N
   0.9136805800000000    0.6409898466666668    0.6739974099999999 N
   0.9136805800000001    0.9743231800000002    0.6739974100000000 N
   0.1993335966666667    0.2091557266666667    0.3248988600000000 N
   0.1993335966666667    0.5424890600000001    0.3248988600000000 N
   0.1993335966666668    0.8758223933333334    0.3248988600000000 N
   0.5326669300000000    0.2091557266666667    0.3248988600000000 N
   0.5326669300000001    0.5424890600000001    0.3248988600000001 N
   0.5326669300000001    0.8758223933333334    0.3248988600000001 N
   0.8660002633333334    0.2091557266666667    0.3248988600000001 N
   0.8660002633333334    0.5424890600000001    0.3248988600000001 N
   0.8660002633333335    0.8758223933333334    0.3248988600000000 N
   0.0062478066666667    0.1733063700000000    0.5619313800000000 N
   0.0062478066666667    0.5066397033333334    0.5619313800000001 N
   0.0062478066666667    0.8399730366666668    0.5619313800000000 N
   0.3395811400000000    0.1733063700000000    0.5619313800000001 N
   0.3395811400000001    0.5066397033333334    0.5619313800000000 N
   0.3395811400000001    0.8399730366666668    0.5619313800000000 N
   0.6729144733333332    0.1733063700000000    0.5619313800000000 N
   0.6729144733333333    0.5066397033333334    0.5619313800000000 N
   0.6729144733333334    0.8399730366666668    0.5619313800000000 N
   0.2115972533333333    0.2473492200000000    0.4377551600000000 N
   0.2115972533333333    0.5806825533333333    0.4377551599999999 N
   0.2115972533333334    0.9140158866666667    0.4377551599999999 N
   0.5449305866666667    0.2473492200000000    0.4377551599999999 N
   0.5449305866666667    0.5806825533333333    0.4377551599999999 N
   0.5449305866666667    0.9140158866666667    0.4377551599999999 N
   0.8782639200000000    0.2473492200000000    0.4377551599999999 N
   0.8782639200000000    0.5806825533333333    0.4377551599999999 N
   0.8782639200000000    0.9140158866666667    0.4377551600000000 N
   0.2536884617487636    0.3182080444957776    0.7217895325687351 H
