H1 W36 N12
1.0
   8.2911786000000003    0.0000000000000000    0.0417049200000000
  -0.0029166900000000    8.5388672400000001   -0.0752026800000000
   0.0000000000000000    0.0000000000000000   22.1021973100000011
W N H
36 12 1
direct
   0.3754748100000000    0.2412136800000000    0.3511211900000000 W
   0.3754844700000000    0.5744041700000000    0.3510340500000000 W
   0.3754778200000000    0.9079472000000000    0.3510209900000000 W
   0.8754744100000000    0.2413869800000000    0.3512129100000000 W
   0.8754816600000001    0.5752410100000001    0.3510176700000000 W
   0.8754757600000000    0.9077774199999999    0.3512786600000000 W
   0.3738667600000000    0.1821681800000000    0.4695280500000000 W
   0.3738602400000000    0.5160674600000000    0.4697962900000000 W
   0.3738547700000000    0.8494873900000000    0.4698335500000000 W
   0.8738685100000000    0.1821332300000000    0.4691967000000000 W
   0.8738685500000000    0.5160396700000000    0.4691669900000000 W
   0.8738547500000000    0.8491044000000000    0.4697987500000000 W
   0.3722734600000000    0.0808652200000000    0.5899741200000000 W
   0.3722893700000000    0.4169542700000000    0.5898610100000000 W
   0.3722903400000000    0.7489640900000000    0.5899653900000000 W
   0.8722875500000000    0.0803273300000000    0.5878492200000000 W
   0.8723116100000000    0.4192902600000000    0.5873457000000000 W
   0.8722966900000000    0.7488607000000000    0.5883947600000000 W
   0.1131868700000000    0.2404942300000000    0.6464132400000000 W
   0.1198673000000000    0.5738338200000000    0.6495429000000000 W
   0.1202894800000000    0.9065479600000000    0.6491054200000000 W
   0.6298354100000000    0.2404629900000000    0.6464140000000000 W
   0.6230745000000000    0.5738320000000000    0.6495510200000000 W
   0.6226344400000000    0.9065408800000000    0.6491134900000000 W
   0.1236195700000000    0.2981269000000000    0.5294643200000000 W
   0.1238069900000000    0.6317206700000000    0.5305238000000000 W
   0.1240743800000000    0.9652639900000000    0.5304168200000000 W
   0.6225265500000000    0.2981245600000000    0.5294624600000000 W
   0.6223252700000000    0.6317137500000000    0.5305274600000000 W
   0.6220343000000000    0.9652556100000000    0.5304150300000000 W
   0.1247608300000000    0.0654878900000000    0.4110399400000000 W
   0.1248290000000000    0.3994818400000000    0.4109284200000000 W
   0.1249511700000000    0.7325748700000000    0.4111635900000000 W
   0.6245103700000000    0.0654854800000000    0.4110380600000000 W
   0.6244575600000000    0.3994830500000000    0.4109304300000000 W
   0.6243225800000000    0.7325703900000000    0.4111658600000000 W
   0.1256348800000000    0.2330925900000000    0.3399409700000000 N
   0.1256844400000000    0.5667988000000000    0.3398077100000000 N
   0.1256591200000000    0.8998178400000000    0.3399038800000000 N
   0.6255808600000000    0.2330933600000000    0.3399398100000000 N
   0.6255426700000000    0.5668001800000000    0.3398079500000000 N
   0.6255625400000000    0.8998144700000000    0.3399029600000000 N
   0.3713272400000000    0.2478851000000000    0.6618119700000000 N
   0.3713285300000000    0.5812965600000000    0.6609093100000000 N
   0.3713230700000000    0.9153174700000000    0.6609748100000000 N
   0.8713666300000000    0.2494838800000000    0.6584401800000000 N
   0.8713433200000000    0.5816753800000000    0.6602398800000000 N
   0.8713372600000000    0.9138951700000000    0.6600483800000000 N
   0.3706620600000000    0.2515810800000000    0.7089042800000001 H
