H1 W36 N12
1.0
   8.2911786000000003    0.0000000000000000    0.0417049200000000
  -0.0029166900000000    8.5388672400000001   -0.0752026800000000
   0.0000000000000000    0.0000000000000000   22.1021973100000011
W N H
36 12 1
direct
   0.3743575500000000    0.2402189300000000    0.3514145700000000 W
   0.3739870000000000    0.5740061500000000    0.3513765200000000 W
   0.3739154800000000    0.9071638600000000    0.3512328200000000 W
   0.8738361100000001    0.2401934600000000    0.3514185800000000 W
   0.8741705700000000    0.5740162800000000    0.3514091900000000 W
   0.8741750800000000    0.9072437700000000    0.3512397600000000 W
   0.3717116200000000    0.1813094100000000    0.4693523200000000 W
   0.3723438100000000    0.5144986700000000    0.4694610200000000 W
   0.3726538800000000    0.8480620500000000    0.4694336400000000 W
   0.8730142000000000    0.1812569900000000    0.4693671500000000 W
   0.8723209900000000    0.5145301600000000    0.4694519300000000 W
   0.8719337700000001    0.8480180700000000    0.4694568900000000 W
   0.3685563600000000    0.0816420300000000    0.5884861800000000 W
   0.3718493700000000    0.4158993800000000    0.5883541100000000 W
   0.3707584900000000    0.7474572800000000    0.5888401700000000 W
   0.8721286900000000    0.0816183500000000    0.5885210800000000 W
   0.8688788600000000    0.4159923600000000    0.5883594200000000 W
   0.8700522100000000    0.7473829000000000    0.5888091900000000 W
   0.1194779600000000    0.2405680400000000    0.6482457000000000 W
   0.1193578200000000    0.5730303300000000    0.6489223100000000 W
   0.1193167000000000    0.9057977600000000    0.6484574100000000 W
   0.6194587400000000    0.2383371700000000    0.6476547900000000 W
   0.6193993100000000    0.5754754100000000    0.6508077400000000 W
   0.6193797200000000    0.9038385300000000    0.6484057700000000 W
   0.1212871400000000    0.2980706100000000    0.5302899500000000 W
   0.1213413300000000    0.6305990600000000    0.5302313600000000 W
   0.1212696700000000    0.9633213700000000    0.5299214799999999 W
   0.6213942700000000    0.2956846200000000    0.5287807100000000 W
   0.6213312500000000    0.6310358200000000    0.5307714000000000 W
   0.6212391100000000    0.9656954400000000    0.5308329800000000 W
   0.1232097800000000    0.0643646600000000    0.4108153300000000 W
   0.1232616100000000    0.3986558800000000    0.4110381800000000 W
   0.1232321900000000    0.7315932800000000    0.4111195200000000 W
   0.6231971500000000    0.0643335300000000    0.4111821000000000 W
   0.6232231400000000    0.3986619400000000    0.4109903700000000 W
   0.6231525600000000    0.7320097200000000    0.4115066500000000 W
   0.1243543900000000    0.2323608500000000    0.3401043900000000 N
   0.1242462900000000    0.5654108900000000    0.3398776300000000 N
   0.1242284200000000    0.8987485100000000    0.3397133700000000 N
   0.6243457100000001    0.2324116800000000    0.3400014400000000 N
   0.6243033099999999    0.5664910800000000    0.3400772400000000 N
   0.6242557200000000    0.8990550300000000    0.3400725200000000 N
   0.3682135500000000    0.2472969800000000    0.6588374200000000 N
   0.3677209100000000    0.5813746800000000    0.6601389000000000 N
   0.3687994400000000    0.9138108100000000    0.6599043100000000 N
   0.8702658700000000    0.2472986800000000    0.6589203100000000 N
   0.8707527200000000    0.5814102300000000    0.6601102500000000 N
   0.8694721800000000    0.9136721700000000    0.6599063900000000 N
   0.6188678000000000    0.4008311100000000    0.7043265300000000 H
