H1 W36 N12
1.0
   8.2911786000000003    0.0000000000000000    0.0417049200000000
  -0.0029166900000000    8.5388672400000001   -0.0752026800000000
   0.0000000000000000    0.0000000000000000   22.1021973100000011
W N H
36 12 1
direct
   0.3784115100000000    0.2416475000000000    0.3514280400000000 W
   0.3787551600000000    0.5754707000000000    0.3513922000000000 W
   0.3789209900000000    0.9085087300000000    0.3512708800000000 W
   0.8788081700000000    0.2416869200000000    0.3514176600000000 W
   0.8784896000000000    0.5756049800000000    0.3514162000000000 W
   0.8786735100000000    0.9084855400000000    0.3512606200000000 W
   0.3778988600000000    0.1834050400000000    0.4694434400000000 W
   0.3771107900000000    0.5167447300000000    0.4695545400000000 W
   0.3769066700000000    0.8501913100000000    0.4695554200000000 W
   0.8763029300000000    0.1833660100000000    0.4694544400000000 W
   0.8771227200000000    0.5166114200000000    0.4696079800000000 W
   0.8774583400000000    0.8500759400000000    0.4695992000000000 W
   0.3775340000000000    0.0846597600000000    0.5886475900000000 W
   0.3740757800000000    0.4190002100000000    0.5884484700000000 W
   0.3755542800000000    0.7503501900000000    0.5890096000000000 W
   0.8740157200000001    0.0845152300000000    0.5886151900000000 W
   0.8773651300000000    0.4190540300000000    0.5885088200000000 W
   0.8760760700000000    0.7503076700000000    0.5890075500000000 W
   0.1251635700000000    0.2415252000000000    0.6476582300000000 W
   0.1249988400000000    0.5790069200000000    0.6509681100000000 W
   0.1251919700000000    0.9069512500000000    0.6484832699999999 W
   0.6249557000000000    0.2438175900000000    0.6483511800000000 W
   0.6250385200000000    0.5761075900000000    0.6491545700000000 W
   0.6250853600000000    0.9089614300000000    0.6486099500000000 W
   0.1264139100000000    0.2981482400000000    0.5288043100000001 W
   0.1264440400000000    0.6338016200000000    0.5308287900000001 W
   0.1264763300000000    0.9682824700000000    0.5308872700000000 W
   0.6264295000000000    0.3008005100000000    0.5304644500000000 W
   0.6265358400000000    0.6331117500000000    0.5303657400000000 W
   0.6265062400000000    0.9656725300000000    0.5300733100000000 W
   0.1278405300000000    0.0659234700000000    0.4112412300000000 W
   0.1278179400000000    0.4002878000000000    0.4110479700000000 W
   0.1279562700000000    0.7335369000000000    0.4115767400000000 W
   0.6279636000000000    0.0659079500000000    0.4108844700000000 W
   0.6278357600000000    0.4002166700000000    0.4111402100000000 W
   0.6279015300000000    0.7330816600000000    0.4112465600000000 W
   0.1287329100000000    0.2337979700000000    0.3401578200000000 N
   0.1287648600000000    0.5678390300000000    0.3401729200000000 N
   0.1289662000000000    0.9002354400000000    0.3401821300000000 N
   0.6287246300000000    0.2337640900000000    0.3401145300000000 N
   0.6287633100000000    0.5667745700000000    0.3399599800000000 N
   0.6289493600000000    0.9000066900000000    0.3397795000000000 N
   0.3759056200000000    0.2505626600000000    0.6588908200000000 N
   0.3763572900000000    0.5844505500000000    0.6602912600000000 N
   0.3752590000000000    0.9168831000000000    0.6600618500000000 N
   0.8739942000000001    0.2504324500000000    0.6589630500000000 N
   0.8734427800000000    0.5845630000000001    0.6603911900000000 N
   0.8748118700000000    0.9168569800000000    0.6600279999999999 N
   0.1253681300000000    0.4044433400000000    0.7042180000000000 H
