H1 W36 N12
1.0
   8.2911786000000003    0.0000000000000000    0.0417049200000000
  -0.0029166900000000    8.5388672400000001   -0.0752026800000000
   0.0000000000000000    0.0000000000000000   22.1021973100000011
W N H
36 12 1
direct
   0.3783096400000000    0.2412388300000000    0.3513455500000000 W
   0.3779548100000000    0.5751914299999999    0.3513755500000000 W
   0.3781481900000000    0.9081134900000000    0.3512870300000000 W
   0.8777769400000000    0.2412670400000000    0.3513311400000000 W
   0.8781841400000000    0.5751358500000000    0.3513653100000000 W
   0.8783407200000000    0.9081256500000000    0.3512477800000000 W
   0.3756465000000000    0.1823187000000000    0.4693808600000000 W
   0.3763519600000000    0.5155735600000000    0.4695327300000000 W
   0.3767455000000000    0.8491048600000000    0.4695233700000000 W
   0.8771623800000000    0.1823662100000000    0.4693882800000000 W
   0.8764446900000000    0.5155991200000000    0.4695051400000000 W
   0.8762002800000001    0.8491257100000000    0.4695206800000000 W
   0.3731376800000000    0.0828674300000000    0.5885475300000000 W
   0.3764631800000000    0.4171327700000000    0.5884618800000000 W
   0.3751139100000000    0.7485167200000000    0.5888962800000000 W
   0.8765074000000000    0.0829225500000000    0.5885329600000000 W
   0.8730380400000000    0.4172839900000000    0.5884211200000000 W
   0.8745269000000000    0.7485984200000000    0.5888993800000000 W
   0.1239221900000000    0.2418301800000000    0.6482669000000000 W
   0.1239523300000000    0.5742222200000000    0.6489853500000000 W
   0.1240425300000000    0.9071593999999999    0.6485057700000000 W
   0.6238795700000000    0.2398074400000000    0.6477432600000000 W
   0.6239664600000000    0.5772399600000000    0.6509234100000000 W
   0.6241026500000000    0.9051637400000000    0.6484254900000000 W
   0.1255274500000000    0.2994119900000000    0.5303694100000000 W
   0.1255711700000000    0.6317397500000000    0.5303078700000000 W
   0.1256142300000000    0.9644603500000000    0.5300326300000000 W
   0.6255483200000000    0.2966541300000000    0.5287798600000000 W
   0.6255446800000000    0.6321782600000000    0.5307326200000000 W
   0.6255747500000000    0.9668045300000000    0.5307744300000000 W
   0.1272355600000000    0.0654704600000000    0.4108293600000000 W
   0.1272230100000000    0.3996166800000000    0.4110493500000000 W
   0.1273229200000000    0.7325563300000000    0.4111748900000000 W
   0.6272918300000000    0.0653995800000000    0.4111484300000000 W
   0.6271707500000000    0.3997495800000000    0.4110090400000000 W
   0.6273005699999999    0.7329697100000000    0.4115639900000000 W
   0.1281973100000000    0.2332966300000000    0.3400275000000000 N
   0.1282084700000000    0.5663890100000000    0.3399002800000000 N
   0.1284439400000000    0.8997096200000000    0.3397630700000000 N
   0.6281775400000000    0.2335224400000000    0.3400234000000000 N
   0.6282028100000000    0.5675406000000000    0.3401547700000000 N
   0.6284382200000000    0.8997451900000000    0.3401474000000000 N
   0.3728019900000000    0.2484456800000000    0.6589509600000000 N
   0.3724108000000000    0.5827309899999999    0.6602455800000000 N
   0.3737596300000000    0.9150016100000000    0.6599447100000000 N
   0.8748018600000000    0.2486826600000000    0.6589440400000000 N
   0.8753412100000000    0.5827601600000000    0.6602204600000000 N
   0.8742434200000000    0.9151782500000000    0.6599122200000000 N
   0.6224415300000000    0.4026771900000000    0.7044014900000000 H
