H1 W18 N36
1.0
   8.8666231499999988    0.0000000000000000   -0.0028193100000000
  -4.4188929300000002    7.6922702100000002    0.0003114900000000
   0.0000000000000000    0.0000000000000000   21.1017816499999995
W N H
18 36 1
direct
   0.1303987800000000    0.0111839033333333    0.5945166900000001 W
   0.1303987800000000    0.3445172366666666    0.5945166900000001 W
   0.1303987800000001    0.6778505700000000    0.5945166900000000 W
   0.4637321133333333    0.0111839033333333    0.5945166900000000 W
   0.4637321133333333    0.3445172366666666    0.5945166900000001 W
   0.4637321133333334    0.6778505700000000    0.5945166900000000 W
   0.7970654466666667    0.0111839033333333    0.5945166900000001 W
   0.7970654466666667    0.3445172366666666    0.5945166900000001 W
   0.7970654466666667    0.6778505700000000    0.5945166900000000 W
   0.1303057333333333    0.0111708566666667    0.4054786100000000 W
   0.1303057333333334    0.3445041900000000    0.4054786100000001 W
   0.1303057333333334    0.6778375233333334    0.4054786100000000 W
   0.4636390666666667    0.0111708566666667    0.4054786100000000 W
   0.4636390666666667    0.3445041900000000    0.4054786100000000 W
   0.4636390666666668    0.6778375233333334    0.4054786100000001 W
   0.7969723999999999    0.0111708566666667    0.4054786100000001 W
   0.7969724000000000    0.3445041900000000    0.4054786100000000 W
   0.7969724000000000    0.6778375233333334    0.4054786100000000 W
   0.0194233933333334    0.1224414466666667    0.4666577800000000 N
   0.0194233933333334    0.4557747800000000    0.4666577800000000 N
   0.0194233933333334    0.7891081133333333    0.4666577800000000 N
   0.3527567266666666    0.1224414466666667    0.4666577800000000 N
   0.3527567266666667    0.4557747800000000    0.4666577800000000 N
   0.3527567266666667    0.7891081133333333    0.4666577800000000 N
   0.6860900600000001    0.1224414466666667    0.4666577800000001 N
   0.6860900600000001    0.4557747800000000    0.4666577800000000 N
   0.6860900599999999    0.7891081133333333    0.4666577800000000 N
   0.0194075533333333    0.1224301633333334    0.5333487400000001 N
   0.0194075533333334    0.4557634966666667    0.5333487400000000 N
   0.0194075533333333    0.7890968300000000    0.5333487400000000 N
   0.3527408866666667    0.1224301633333334    0.5333487400000000 N
   0.3527408866666667    0.4557634966666667    0.5333487400000001 N
   0.3527408866666667    0.7890968300000000    0.5333487400000000 N
   0.6860742200000000    0.1224301633333334    0.5333487400000001 N
   0.6860742200000001    0.4557634966666667    0.5333487400000000 N
   0.6860742200000001    0.7890968300000000    0.5333487400000000 N
   0.0184715133333333    0.1220758400000000    0.3552049700000000 N
   0.0184715133333334    0.4554091733333333    0.3552049700000000 N
   0.0184715133333334    0.7887425066666667    0.3552049700000001 N
   0.3518048466666667    0.1220758400000000    0.3552049700000001 N
   0.3518048466666667    0.4554091733333333    0.3552049700000001 N
   0.3518048466666667    0.7887425066666667    0.3552049700000000 N
   0.6851381800000000    0.1220758400000000    0.3552049700000000 N
   0.6851381800000000    0.4554091733333333    0.3552049700000000 N
   0.6851381800000000    0.7887425066666667    0.3552049700000000 N
   0.0185990266666667    0.1220834566666667    0.6447932100000001 N
   0.0185990266666667    0.4554167900000000    0.6447932100000000 N
   0.0185990266666667    0.7887501233333333    0.6447932100000000 N
   0.3519323600000001    0.1220834566666667    0.6447932100000000 N
   0.3519323600000001    0.4554167900000000    0.6447932100000000 N
   0.3519323600000001    0.7887501233333333    0.6447932100000000 N
   0.6852656933333333    0.1220834566666667    0.6447932100000001 N
   0.6852656933333334    0.4554167900000000    0.6447932100000000 N
   0.6852656933333334    0.7887501233333333    0.6447932100000000 N
   0.3519774321115694    0.4554352716863976    0.6922221909864328 H
