H1 W45 N27
1.0
   8.8091896799999994    0.0000000000000000   -0.0322629300000000
  -0.0041149800000000    8.8105912800000006    0.0003707700000000
   0.0000000000000000    0.0000000000000000   23.8006870200000016
W N H
45 27 1
direct
   0.1020524500000000    0.2351646300000000    0.3318929600000000 W
   0.0999994800000000    0.5760922500000000    0.3316527000000000 W
   0.1032408900000000    0.9052494400000000    0.3295602100000000 W
   0.4425452000000000    0.2463724700000000    0.3294474900000000 W
   0.4437304100000000    0.5648430400000000    0.3298532500000000 W
   0.4303292300000000    0.9043526600000000    0.3320709800000000 W
   0.7611700200000000    0.2458112300000000    0.3296305700000000 W
   0.7618383399999999    0.5639491700000000    0.3297195600000000 W
   0.7716373600000000    0.9068226600000000    0.3318108700000000 W
   0.1163700400000000    0.2498124200000000    0.6699186700000000 W
   0.1141848400000000    0.5627510200000000    0.6700944900000000 W
   0.1015521800000000    0.9077410500000000    0.6677191900000000 W
   0.4288782100000000    0.2511828100000000    0.6696133300000000 W
   0.4293579800000000    0.5652002600000000    0.6705766600000000 W
   0.4435287100000000    0.9024282000000000    0.6669953100000000 W
   0.7717349500000000    0.2341045300000000    0.6673318400000000 W
   0.7744976099999999    0.5762834100000001    0.6670387400000000 W
   0.7710627300000000    0.9077423900000000    0.6679952700000000 W
   0.2726286000000000    0.0723746400000000    0.5886067500000000 W
   0.2739280200000000    0.4097698600000000    0.5873646900000000 W
   0.2689588700000000    0.7397213300000000    0.5886981800000000 W
   0.6040984800000000    0.0753103800000000    0.5866909400000000 W
   0.6058730100000000    0.4058521000000000    0.5872965100000000 W
   0.6100830300000000    0.7396769200000000    0.5867154200000000 W
   0.9377183500000000    0.0735484300000000    0.5874227900000000 W
   0.9355822700000000    0.4055053900000000    0.5880373600000000 W
   0.9347337000000000    0.7420507700000000    0.5870012100000001 W
   0.2707936000000000    0.0737432900000000    0.4113206000000000 W
   0.2706434200000000    0.4057708300000000    0.4108123000000000 W
   0.2681179100000000    0.7379701100000000    0.4112476100000000 W
   0.6027504299999999    0.0734546400000000    0.4110571100000000 W
   0.6013599800000000    0.4047144400000000    0.4139869500000000 W
   0.6036259200000000    0.7375798400000000    0.4106785200000000 W
   0.9355985400000000    0.0721939100000000    0.4110607100000000 W
   0.9364892300000000    0.4047775900000000    0.4107479000000000 W
   0.9362018600000001    0.7391580900000000    0.4110400600000000 W
   0.1264965200000000    0.2366186500000000    0.5015809100000000 W
   0.0849875700000000    0.5702537800000000    0.5007342600000000 W
   0.1000031900000000    0.9085052500000000    0.4944808600000000 W
   0.4248387400000000    0.2418503000000000    0.4988750000000000 W
   0.4412254400000000    0.5885484400000000    0.4995989800000000 W
   0.4388117100000000    0.8824917600000000    0.4995628100000000 W
   0.7628114000000000    0.2291368800000000    0.4976326100000000 W
   0.7852286900000000    0.5622717800000000    0.4980861300000000 W
   0.7731081700000000    0.9248030200000000    0.5031862300000000 W
   0.2736988200000000    0.0710101300000000    0.6822550200000000 N
   0.2732113800000000    0.4080076900000000    0.7142391400000000 N
   0.2708003200000000    0.7413199100000000    0.6836284200000000 N
   0.5991692600000000    0.0772657100000000    0.6801381200000000 N
   0.6075203700000000    0.4070419400000000    0.6818718499999999 N
   0.6031933900000001    0.7346980400000001    0.6813060700000000 N
   0.9440618900000000    0.0780401400000000    0.6810124900000000 N
   0.9374135600000000    0.4054520600000000    0.6830855100000000 N
   0.9434121600000001    0.7366021600000000    0.6806686600000000 N
   0.2719708100000000    0.0760796900000000    0.3168064500000000 N
   0.2665368800000000    0.4057855700000000    0.3166033600000000 N
   0.2720196100000000    0.7343465500000000    0.3167634400000000 N
   0.6013362799999999    0.0700489000000000    0.3159338700000000 N
   0.6022305300000000    0.4053900000000000    0.2980246300000000 N
   0.6022816300000000    0.7408294500000000    0.3162210600000000 N
   0.9318066699999999    0.0751284500000000    0.3165915700000000 N
   0.9370659800000000    0.4051181400000000    0.3151757500000000 N
   0.9311995400000000    0.7362970300000000    0.3165095600000000 N
   0.2825094400000000    0.0558104900000000    0.4998168700000000 N
   0.2707042800000000    0.4256367000000000    0.4990460000000000 N
   0.2547690300000000    0.7319462600000000    0.4999336100000000 N
   0.5836112300000000    0.0675920600000000    0.4989144000000000 N
   0.5997768700000000    0.4081502900000000    0.4998665900000000 N
   0.6285891300000001    0.7383097800000000    0.4987918900000000 N
   0.9473947000000000    0.0879379100000000    0.4993663300000000 N
   0.9422734400000000    0.3809476500000000    0.4993486500000000 N
   0.9264441500000000    0.7482481100000000    0.4990173300000000 N
   0.2742119600000000    0.4082066100000000    0.7576285400000000 H
