H1 W36 N18
1.0
   8.8135064100000005    0.0000000000000000   -0.6873464400000000
  -0.0075723000000000    8.8275280200000008   -0.4840591800000000
   0.0000000000000000    0.0000000000000000   21.3095355700000013
W N H
36 18 1
direct
   0.1402365100000000    0.1481318600000000    0.4576096700000000 W
   0.1402663900000000    0.4823058100000000    0.4576081700000000 W
   0.1408500200000000    0.8149885700000000    0.4555939300000000 W
   0.4743926100000000    0.1481768100000000    0.4575957200000000 W
   0.4744208500000000    0.4823332900000000    0.4576040500000000 W
   0.4730631700000000    0.8149573700000000    0.4555882000000000 W
   0.8069555200000000    0.1488772500000000    0.4555838700000000 W
   0.8069134800000000    0.4810841300000000    0.4555869100000000 W
   0.8067133900000000    0.8148272200000000    0.4544729600000000 W
   0.1866796300000000    0.1848506000000000    0.6322986100000000 W
   0.1866967500000000    0.4914308500000000    0.6323848000000000 W
   0.1669677100000000    0.8377789900000000    0.6306834300000000 W
   0.4932491800000000    0.1848499900000000    0.6323885500000000 W
   0.4931366400000000    0.4912650600000000    0.6323000800000000 W
   0.5124285700000000    0.8380941300000000    0.6307188400000000 W
   0.8394734200000000    0.1652075300000000    0.6306961100000000 W
   0.8399105800000000    0.5106335300000000    0.6307106099999999 W
   0.8399681800000000    0.8381289400000000    0.6323864500000000 W
   0.2905486100000000    0.3035253200000000    0.3680008800000000 W
   0.2904349000000000    0.6366444800000000    0.3670257700000000 W
   0.2904095400000000    0.9701165200000000    0.3670288100000000 W
   0.6236463500000000    0.3034097100000000    0.3670194200000000 W
   0.6240336300000000    0.6370654900000000    0.3663944000000000 W
   0.6239954200000000    0.9695836700000000    0.3664247700000000 W
   0.9571183500000000    0.3033888200000000    0.3670328000000000 W
   0.9565630800000000    0.6370342500000000    0.3664358700000000 W
   0.9565034700000000    0.9695310300000000    0.3664133800000000 W
   0.3233209900000000    0.3264202900000000    0.5430956600000000 W
   0.3231487900000000    0.6620500100000000    0.5421583200000000 W
   0.3231248200000000    0.9905186300000000    0.5421509900000000 W
   0.6588826000000000    0.3263191500000000    0.5421595800000000 W
   0.6578468600000000    0.6611261899999999    0.5402011300000000 W
   0.6578326200000000    0.9909545600000000    0.5401289600000000 W
   0.9873312600000000    0.3262957300000000    0.5421459100000000 W
   0.9876227600000000    0.6611289500000000    0.5401232200000000 W
   0.9876101000000000    0.9909338000000000    0.5401648300000000 W
   0.1211475700000000    0.1348935800000000    0.3537463800000000 N
   0.1211343500000000    0.4684050700000000    0.3537215200000000 N
   0.1209948800000000    0.8012886900000000    0.3511029900000000 N
   0.4546426700000000    0.1348959400000000    0.3537063400000000 N
   0.4546292500000000    0.4683771200000000    0.3537057800000000 N
   0.4538315600000000    0.8012943400000000    0.3510664300000000 N
   0.7873936100000000    0.1348746100000000    0.3510920400000000 N
   0.7874044400000000    0.4677211900000000    0.3510724200000000 N
   0.7871504499999999    0.8011138500000000    0.3497457100000000 N
   0.0132256800000000    0.0107876500000000    0.6432731699999999 N
   0.0058410500000000    0.3397232100000000    0.6451363800000000 N
   0.0134646500000000    0.6681721100000000    0.6432607900000000 N
   0.3422920200000000    0.0032740400000000    0.6451388400000000 N
   0.3499984500000000    0.3451731000000000    0.6877605500000000 N
   0.3424468200000000    0.6763243799999999    0.6451215000000000 N
   0.6706120000000000    0.0109956100000000    0.6432738000000000 N
   0.6788724800000000    0.3398935600000000    0.6451245400000000 N
   0.6708001099999999    0.6682942100000000    0.6433095700000000 N
   0.3587369000000000    0.3512840200000000    0.7363642200000000 H
