H1 W36 N18
1.0
   8.8135064100000005    0.0000000000000000   -0.6873464400000000
  -0.0075723000000000    8.8275280200000008   -0.4840591800000000
   0.0000000000000000    0.0000000000000000   21.3095355700000013
W N H
36 18 1
direct
   0.1423125600000000    0.1501566300000000    0.4590389400000000 W
   0.1419612600000000    0.4836515300000000    0.4569681200000000 W
   0.1419598000000000    0.8162391600000000    0.4569958100000000 W
   0.4756970700000000    0.1499152300000000    0.4569644900000000 W
   0.4754460600000000    0.4834322200000000    0.4565253600000000 W
   0.4754487000000000    0.8162161500000000    0.4566034200000000 W
   0.8082724300000000    0.1499235700000000    0.4569932600000000 W
   0.8082207200000000    0.4834370100000000    0.4565968000000000 W
   0.8082138600000000    0.8162065500000000    0.4566718100000000 W
   0.1752430100000000    0.1733265100000000    0.6323688600000000 W
   0.1752203600000000    0.5063485700000000    0.6314438700000000 W
   0.1753410200000000    0.8404669200000000    0.6315678400000000 W
   0.5082252200000000    0.1733476400000000    0.6314471600000000 W
   0.5094258200000000    0.5075071600000000    0.6320523800000000 W
   0.5096268900000001    0.8393457100000000    0.6321542800000000 W
   0.8423098800000000    0.1734515800000000    0.6315607700000000 W
   0.8412560000000000    0.5077240800000000    0.6321582300000000 W
   0.8410345000000000    0.8391316200000000    0.6322035700000000 W
   0.2910528800000000    0.3040809000000000    0.3674451900000000 W
   0.2916483400000000    0.6376637200000000    0.3669139800000000 W
   0.2911287900000000    0.9714722400000000    0.3674786500000000 W
   0.6246147800000000    0.3046896700000000    0.3669053200000000 W
   0.6245988400000000    0.6376713700000000    0.3665197600000000 W
   0.6246556300000000    0.9707876100000000    0.3669948500000000 W
   0.9584687600000000    0.3041295500000000    0.3674763900000000 W
   0.9577289900000000    0.6376999100000000    0.3669924800000000 W
   0.9583363200000000    0.9713865600000000    0.3674891800000000 W
   0.3264109800000000    0.3295418000000000    0.5425232800000001 W
   0.3251793800000000    0.6613887700000000    0.5419343000000000 W
   0.3265865300000000    0.9932302600000000    0.5425888700000000 W
   0.6582518400000000    0.3283448200000000    0.5419361100000000 W
   0.6580707200000000    0.6612118900000000    0.5417434400000000 W
   0.6583148100000000    0.9943948700000000    0.5420262300000001 W
   0.9900998800000000    0.3297195900000000    0.5425744700000000 W
   0.9912542300000000    0.6614654700000000    0.5420340400000000 W
   0.9901337099999999    0.9932319900000000    0.5427426300000000 W
   0.1222591900000000    0.1360153400000000    0.3543056600000000 N
   0.1220081300000000    0.4693791000000000    0.3527760700000000 N
   0.1220666400000000    0.8022967200000000    0.3529098400000000 N
   0.4555303300000000    0.1358355800000000    0.3527813400000000 N
   0.4548323300000000    0.4687187100000000    0.3522899400000000 N
   0.4549055000000000    0.8028162100000000    0.3523785200000000 N
   0.7884605500000000    0.1359085700000000    0.3529087800000000 N
   0.7889505000000000    0.4687771200000000    0.3523726500000000 N
   0.7889056000000000    0.8027613200000000    0.3523306500000000 N
   0.0092483700000000    0.0066164500000000    0.6454080900000000 N
   0.0094329900000000    0.3437072400000000    0.6451948900000000 N
   0.0117757600000000    0.6753934000000000    0.6462966600000000 N
   0.3463407300000000    0.0068249400000000    0.6452012600000000 N
   0.3462723300000000    0.3436368300000000    0.6451430500000001 N
   0.3443158700000000    0.6753136100000000    0.6462379100000000 N
   0.6780731600000000    0.0090772600000000    0.6463038200000000 N
   0.6779960200000000    0.3416303000000000    0.6462350800000000 N
   0.6779393900000000    0.6752172500000000    0.6469643700000000 N
   0.1910792800000000    0.1845244400000000    0.7141094099999999 H
