H1 W36 N12
1.0
   8.2911786000000003    0.0000000000000000    0.0417049200000000
  -0.0029166900000000    8.5388672400000001   -0.0752026800000000
   0.0000000000000000    0.0000000000000000   22.1021973100000011
W N H
36 12 1
direct
   0.3758298900000000    0.2383309800000000    0.3519792100000000 W
   0.3752783900000000    0.5721356600000000    0.3520277800000000 W
   0.3752465800000000    0.9051612000000000    0.3519529700000000 W
   0.8751517400000000    0.2383065600000000    0.3519717500000000 W
   0.8757244600000000    0.5721351700000000    0.3520226300000000 W
   0.8757425000000000    0.9051717500000001    0.3519584100000000 W
   0.3731836700000000    0.1788103700000000    0.4699739000000000 W
   0.3737475500000000    0.5122583300000000    0.4701029000000000 W
   0.3741310700000000    0.8456761000000000    0.4702142900000000 W
   0.8745993800000000    0.1788386800000000    0.4699731700000000 W
   0.8739812800000000    0.5122614300000000    0.4701085700000000 W
   0.8736049299999999    0.8456608900000000    0.4702118100000000 W
   0.3705463400000000    0.0790172100000000    0.5890734000000000 W
   0.3738975400000000    0.4132600200000000    0.5889350000000000 W
   0.3726948400000000    0.7448103700000001    0.5895566000000000 W
   0.8740412900000000    0.0790760500000000    0.5890734100000000 W
   0.8706762300000001    0.4132447600000000    0.5889361600000000 W
   0.8718566400000000    0.7447953899999999    0.5895471600000000 W
   0.1214521500000000    0.2374143900000000    0.6487834300000000 W
   0.1214496000000000    0.5697360299999999    0.6494488400000000 W
   0.1214604100000000    0.9029404700000000    0.6490712300000000 W
   0.6214970600000000    0.2357325400000000    0.6481459400000000 W
   0.6214306200000000    0.5734327900000000    0.6514521800000000 W
   0.6214315600000000    0.9016626200000000    0.6490717200000000 W
   0.1230580500000000    0.2957783800000000    0.5309552800000000 W
   0.1230560300000000    0.6283063700000000    0.5309599800000000 W
   0.1230503000000000    0.9610372800000000    0.5307018900000000 W
   0.6230776300000000    0.2930354100000000    0.5292436300000000 W
   0.6230403300000000    0.6283207200000001    0.5313926500000000 W
   0.6230377000000000    0.9630922800000000    0.5315118500000000 W
   0.1246560000000000    0.0624843300000000    0.4114222700000000 W
   0.1246426800000000    0.3966518300000000    0.4116782700000000 W
   0.1246552500000000    0.7296167200000000    0.4118393800000000 W
   0.6246611600000000    0.0623290400000000    0.4118981600000000 W
   0.6246401900000000    0.3967453400000000    0.4115810400000000 W
   0.6246608100000000    0.7300835300000000    0.4123384400000000 W
   0.1256328200000000    0.2304783100000000    0.3407280700000000 N
   0.1256365200000000    0.5634149600000000    0.3406108200000000 N
   0.1256338900000000    0.8967129000000000    0.3403841100000000 N
   0.6256291800000000    0.2304771300000000    0.3406703300000000 N
   0.6256270800000000    0.5648102800000000    0.3407824600000000 N
   0.6256343100000000    0.8969082000000000    0.3408576600000000 N
   0.3705506400000000    0.2445618500000000    0.6594461600000000 N
   0.3697599400000000    0.5786455100000000    0.6607340300000000 N
   0.3710442800000000    0.9113056400000000    0.6605503100000000 N
   0.8721235899999999    0.2445549800000000    0.6594414000000000 N
   0.8728334400000000    0.5786566300000000    0.6607380400000000 N
   0.8715618200000000    0.9113215600000000    0.6605535800000000 N
   0.6206977600000000    0.3988756000000000    0.7046552600000000 H
