H1 W36 N12
1.0
   8.2911786000000003    0.0000000000000000    0.0417049200000000
  -0.0029166900000000    8.5388672400000001   -0.0752026800000000
   0.0000000000000000    0.0000000000000000   22.1021973100000011
W N H
36 12 1
direct
   0.3778348600000000    0.2399295100000000    0.3510125500000000 W
   0.3779856600000000    0.5732817800000000    0.3508298000000000 W
   0.3780093500000000    0.9066099000000000    0.3509720500000000 W
   0.8778530300000000    0.2400873600000000    0.3510776800000000 W
   0.8779911400000000    0.5741646600000000    0.3508895000000000 W
   0.8779619900000000    0.9065382500000000    0.3511518100000000 W
   0.3763364600000000    0.1818171400000000    0.4694658000000000 W
   0.3764540700000000    0.5156115200000000    0.4695506500000000 W
   0.3764448600000000    0.8491377300000000    0.4698069400000000 W
   0.8764612700000000    0.1816998000000000    0.4691447400000000 W
   0.8763521500000000    0.5155037300000000    0.4690981500000000 W
   0.8763463700000000    0.8486062300000000    0.4697303300000000 W
   0.3746058400000000    0.0814815900000000    0.5899919700000000 W
   0.3749490400000000    0.4177311300000000    0.5894554900000000 W
   0.3747498900000000    0.7494514000000000    0.5898229300000000 W
   0.8749133500000000    0.0808004300000000    0.5878124500000000 W
   0.8747691900000000    0.4195777800000000    0.5872672700000000 W
   0.8748432100000000    0.7493532800000000    0.5884197400000000 W
   0.1156889000000000    0.2413686000000000    0.6464436099999999 W
   0.1224792700000000    0.5741176800000000    0.6493488800000000 W
   0.1228948300000000    0.9072064900000000    0.6490701500000000 W
   0.6323880500000000    0.2410189600000000    0.6462363600000000 W
   0.6255617200000000    0.5741929200000000    0.6494183900000000 W
   0.6250604100000000    0.9072702700000000    0.6490707000000000 W
   0.1261501200000000    0.2981750700000000    0.5294364600000000 W
   0.1262207500000000    0.6316949900000000    0.5303572000000000 W
   0.1265649700000000    0.9651557100000000    0.5303356600000000 W
   0.6251258100000000    0.2979513000000000    0.5293079500000000 W
   0.6249235500000000    0.6317453100000000    0.5304240500000000 W
   0.6244924900000000    0.9652675300000000    0.5304060100000000 W
   0.1272544000000000    0.0645652300000000    0.4109509700000000 W
   0.1272900200000000    0.3985608000000000    0.4107977200000000 W
   0.1275757300000000    0.7315627600000000    0.4110732200000000 W
   0.6269796700000000    0.0645607700000000    0.4109718500000000 W
   0.6269743000000000    0.3985040500000000    0.4107265000000000 W
   0.6268284300000000    0.7315837700000000    0.4110430600000000 W
   0.1280245600000000    0.2320200500000000    0.3397950800000000 N
   0.1281908200000000    0.5657212100000000    0.3396747600000000 N
   0.1282011800000000    0.8986428200000000    0.3398569600000000 N
   0.6279939000000000    0.2318648900000000    0.3397740500000000 N
   0.6281331300000000    0.5658256699999999    0.3396259900000000 N
   0.6280832800000000    0.8987196100000000    0.3398145300000000 N
   0.3737426300000000    0.2498937100000000    0.6616258500000000 N
   0.3739102500000000    0.5816810700000000    0.6606884100000000 N
   0.3738020100000000    0.9158227000000000    0.6608846800000000 N
   0.8737484800000000    0.2499552400000000    0.6584731000000000 N
   0.8738543500000000    0.5819823300000000    0.6601276100000000 N
   0.8738686700000000    0.9147679100000000    0.6600162899999999 N
   0.3754441300000000    0.2591473600000000    0.7083538900000000 H
