H1 W36 N12
1.0
   8.2911786000000003    0.0000000000000000    0.0417049200000000
  -0.0029166900000000    8.5388672400000001   -0.0752026800000000
   0.0000000000000000    0.0000000000000000   22.1021973100000011
W N H
36 12 1
direct
   0.3771226200000000    0.2401453800000000    0.3514152100000000 W
   0.3768215500000000    0.5740085800000000    0.3514038100000000 W
   0.3767909700000000    0.9072343000000000    0.3512351800000000 W
   0.8766173300000000    0.2401476200000000    0.3514143600000000 W
   0.8769676500000000    0.5739989800000000    0.3513647200000000 W
   0.8770532500000000    0.9071565500000000    0.3512262100000000 W
   0.3747634900000000    0.1812621900000000    0.4693701400000000 W
   0.3754455300000000    0.5145318200000000    0.4694551600000000 W
   0.3758465900000000    0.8480079600000000    0.4694589500000000 W
   0.8760523800000000    0.1812950000000000    0.4693450700000000 W
   0.8754128799999999    0.5144954800000000    0.4694647700000000 W
   0.8751125500000000    0.8480402400000000    0.4694400300000000 W
   0.3724023700000000    0.0816515500000000    0.5885178300000000 W
   0.3756800600000000    0.4160598600000000    0.5883538400000000 W
   0.3744956900000000    0.7474124100000000    0.5888259700000000 W
   0.8760697900000000    0.0816744400000000    0.5884891500000000 W
   0.8727640500000000    0.4159115600000000    0.5883507100000001 W
   0.8738254500000000    0.7474692400000000    0.5888602500000000 W
   0.1234683200000000    0.2406495000000000    0.6482387300000000 W
   0.1235435300000000    0.5730432700000000    0.6489268500000001 W
   0.1235725300000000    0.9058028900000000    0.6484510100000000 W
   0.6234850400000000    0.2383750100000000    0.6476252500000000 W
   0.6234470900000000    0.5754614800000000    0.6508166500000000 W
   0.6234971600000000    0.9038303300000000    0.6484107500000000 W
   0.1248438000000000    0.2980639300000000    0.5302917300000000 W
   0.1247785500000000    0.6306276400000000    0.5302496200000000 W
   0.1248636700000000    0.9633204700000000    0.5298930400000000 W
   0.6247476500000000    0.2956997700000000    0.5287743100000000 W
   0.6247964200000000    0.6310696500000000    0.5307884800000000 W
   0.6248454800000000    0.9657292900000000    0.5308386899999999 W
   0.1261363900000000    0.0643404400000000    0.4108181100000000 W
   0.1260500300000000    0.3986271800000000    0.4110314800000000 W
   0.1260937500000000    0.7315684600000000    0.4111156500000000 W
   0.6260981799999999    0.0643019200000000    0.4111895100000000 W
   0.6260770300000000    0.3986491400000000    0.4109862200000000 W
   0.6261619100000000    0.7320199800000000    0.4115236700000000 W
   0.1269045900000000    0.2323291300000000    0.3401030800000000 N
   0.1270307100000000    0.5653722200000000    0.3398683900000000 N
   0.1270695300000000    0.8987228100000000    0.3397087700000000 N
   0.6269271000000000    0.2323693200000000    0.3400006300000000 N
   0.6269833700000000    0.5664931900000000    0.3400733400000000 N
   0.6270319100000000    0.8990466100000000    0.3400741800000000 N
   0.3724044800000000    0.2473238000000000    0.6589094599999999 N
   0.3718825100000000    0.5814194100000000    0.6601327900000000 N
   0.3731121400000000    0.9136823800000000    0.6599043100000000 N
   0.8744188100000000    0.2473214100000000    0.6588281700000000 N
   0.8749151300000000    0.5813386400000000    0.6601399200000000 N
   0.8737973800000000    0.9138782200000000    0.6599077700000000 N
   0.6224381200000000    0.4007753000000000    0.7043370900000000 H
