H1 W36 N12
1.0
   8.2911786000000003    0.0000000000000000    0.0417049200000000
  -0.0029166900000000    8.5388672400000001   -0.0752026800000000
   0.0000000000000000    0.0000000000000000   22.1021973100000011
W N H
36 12 1
direct
   0.3722252400000000    0.2421178600000000    0.3514602800000000 W
   0.3718893400000000    0.5758874300000000    0.3514581200000000 W
   0.3718063400000000    0.9089810699999999    0.3513565500000000 W
   0.8717691200000000    0.2420632800000000    0.3514703500000000 W
   0.8720959700000001    0.5759112300000000    0.3514752500000000 W
   0.8719826100000000    0.9088786000000000    0.3513658600000000 W
   0.3697453600000000    0.1833455800000000    0.4694158200000000 W
   0.3704597300000000    0.5165969100000000    0.4695399700000000 W
   0.3707227600000000    0.8501616800000000    0.4696067000000000 W
   0.8712079300000000    0.1833512100000000    0.4694400900000000 W
   0.8705081200000000    0.5166455500000000    0.4695944400000000 W
   0.8701984300000000    0.8501331300000000    0.4695945500000000 W
   0.3673129400000000    0.0842893200000000    0.5885782000000001 W
   0.3704918200000000    0.4185941300000000    0.5884018700000000 W
   0.3692729900000000    0.7500584800000000    0.5889413000000000 W
   0.8706747600000000    0.0843075200000000    0.5886103100000000 W
   0.8673528000000000    0.4185541800000000    0.5884827200000000 W
   0.8687702500000000    0.7501026500000000    0.5889760200000000 W
   0.1180247000000000    0.2433618400000000    0.6483227800000000 W
   0.1181631400000000    0.5757589600000000    0.6490844000000000 W
   0.1182061300000000    0.9087354900000000    0.6486433700000001 W
   0.6181103800000000    0.2412110400000000    0.6477061800000000 W
   0.6180899300000000    0.5787042100000001    0.6509058800000000 W
   0.6181915500000000    0.9067107500000000    0.6485159600000000 W
   0.1196317000000000    0.3005395900000000    0.5303940100000000 W
   0.1197344000000000    0.6328891900000000    0.5303422300000000 W
   0.1197512400000000    0.9656523600000000    0.5300805900000000 W
   0.6198308400000000    0.2979238300000000    0.5288346200000000 W
   0.6197608900000000    0.6334266100000000    0.5308358700000000 W
   0.6197818100000000    0.9679707200000000    0.5308483000000001 W
   0.1212672400000000    0.0662640700000000    0.4109143500000000 W
   0.1212283200000000    0.4005404800000000    0.4111308200000000 W
   0.1212179800000000    0.7334248500000000    0.4112697200000000 W
   0.6212103500000000    0.0662904100000000    0.4112291700000000 W
   0.6212566100000000    0.4006847000000000    0.4110748100000000 W
   0.6211641300000000    0.7338549700000000    0.4116250700000000 W
   0.1221483400000000    0.2341668500000000    0.3401438300000000 N
   0.1221550500000000    0.5672606700000000    0.3400022900000000 N
   0.1220068200000000    0.9004628200000000    0.3398340700000000 N
   0.6221797700000000    0.2343635000000000    0.3401103400000000 N
   0.6221653600000000    0.5683949500000000    0.3401904200000000 N
   0.6220186000000000    0.9007100400000000    0.3402037100000000 N
   0.3669012500000000    0.2501478600000000    0.6589165000000000 N
   0.3665057200000000    0.5841659300000001    0.6602358100000000 N
   0.3678707400000000    0.9166305400000000    0.6599821900000000 N
   0.8688907200000000    0.2499953200000000    0.6589470700000000 N
   0.8693984800000000    0.5842093600000000    0.6602962400000000 N
   0.8682842800000000    0.9166315600000000    0.6600401299999999 N
   0.6171095500000000    0.4043740700000000    0.7042061200000000 H
