H1 W18 N27
1.0
   8.3378969099999996    0.0000000000000000   -0.6339652200000000
  -0.0216028500000000    8.3473862400000005   -0.3007192200000000
   0.0000000000000000    0.0000000000000000   19.4415438899999984
W N H
18 27 1
direct
   0.0050872300000000   -0.0008567800000000    0.5777198099999999 W
   0.0050872800000000    0.3370319900000000    0.5777339600000000 W
   0.0096088400000000    0.6681504300000000    0.5784142900000000 W
   0.3442182200000000   -0.0007902400000000    0.5775902900000000 W
   0.3442381500000000    0.3369458100000000    0.5776060000000000 W
   0.3403093100000000    0.6681558500000000    0.5784806700000000 W
   0.6741302400000000    0.0014171700000000    0.5783382500000001 W
   0.6741395700000000    0.3348719100000000    0.5783384000000000 W
   0.6738541600000000    0.6680949500000000    0.5778294700000000 W
   0.1462625600000000    0.1548569100000000    0.4196802300000000 W
   0.1465099600000000    0.4878722400000000    0.4207445200000000 W
   0.1465168100000000    0.8220345300000000    0.4207316300000000 W
   0.4798343800000000    0.1548264300000000    0.4193180300000000 W
   0.4798043700000000    0.4884857900000000    0.4196136700000000 W
   0.4797972600000000    0.8212406799999999    0.4196072800000000 W
   0.8127232100000000    0.1548523100000000    0.4195198300000000 W
   0.8128837900000000    0.4884054900000000    0.4196737200000000 W
   0.8128678700000000    0.8213059400000000    0.4196718500000000 W
   0.3059249800000000    0.3187925500000000    0.3823278300000000 N
   0.3057521500000000    0.6517160100000000    0.3823013800000000 N
   0.3059272500000000    0.9846655700000000    0.3823229700000000 N
   0.6396172400000000    0.3184921900000000    0.3813122700000000 N
   0.6396974200000000    0.6516831800000000    0.3819371500000000 N
   0.6396141200000000    0.9847906900000000    0.3813076000000000 N
   0.9733068200000000    0.3187925900000000    0.3823451900000000 N
   0.9736218200000000    0.6517234400000000    0.3823577700000000 N
   0.9732983900000000    0.9846616000000000    0.3823378800000000 N
   0.1826467100000000    0.1717598800000000    0.6218278500000000 N
   0.1817881400000000    0.5033207400000000    0.6175414700000000 N
   0.1817859900000000    0.8395405600000000    0.6175351300000000 N
   0.5124083200000000    0.1713807700000000    0.6170452800000000 N
   0.5148475000000000    0.5049837300000000    0.6167322300000000 N
   0.5148433900000000    0.8377454000000000    0.6167269800000000 N
   0.8498688300000000    0.1713546100000000    0.6166850600000000 N
   0.8475400500000000    0.5049430800000000    0.6161125000000000 N
   0.8475405200000000    0.8376684500000000    0.6161103700000000 N
   0.1602311200000000    0.3258899700000000    0.5000145499999999 N
   0.1604522900000000    0.6615500300000000    0.4994826700000000 N
   0.1602238700000000    0.9972654300000000    0.5000007700000000 N
   0.4959616400000000    0.3277932800000000    0.4986944700000000 N
   0.4942747600000000    0.6615151100000000    0.4990924700000000 N
   0.4959631500000000    0.9951707500000000    0.4986860000000000 N
   0.8253415500000000    0.3277876300000000    0.4987789500000000 N
   0.8272124800000000    0.6615126099999999    0.4991297800000000 N
   0.8253315200000000    0.9951819200000001    0.4987746500000000 N
   0.1936346900000000    0.1760220100000000    0.6748984700000000 H
