H1 W18 N27
1.0
   8.3378969099999996    0.0000000000000000   -0.6339652200000000
  -0.0216028500000000    8.3473862400000005   -0.3007192200000000
   0.0000000000000000    0.0000000000000000   19.4415438899999984
W N H
18 27 1
direct
   0.0089418800000000   -0.0005313900000000    0.5786822700000001 W
   0.0045645800000000    0.3304488600000000    0.5779622000000000 W
   0.0045331600000000    0.6684013500000000    0.5777662800000000 W
   0.3394963700000000   -0.0004483700000000    0.5787506600000000 W
   0.3434396000000000    0.3305157200000000    0.5780670300000000 W
   0.3434401700000000    0.6683694000000000    0.5778697699999999 W
   0.6736897600000000   -0.0005247600000000    0.5780228700000000 W
   0.6737935300000000    0.3327183800000000    0.5786580099999999 W
   0.6738407700000000    0.6662674700000000    0.5785543399999999 W
   0.1460736700000000    0.1536775200000000    0.4210144800000000 W
   0.1458141300000000    0.4865372500000000    0.4199551200000000 W
   0.1460910000000000    0.8196567800000000    0.4209290600000000 W
   0.4793305400000000    0.1529057300000000    0.4199376700000000 W
   0.4793238000000000    0.4864781900000000    0.4197206300000000 W
   0.4793353600000000    0.8200695800000000    0.4198831500000000 W
   0.8123735600000001    0.1528732500000000    0.4199893600000000 W
   0.8122101300000000    0.4864483900000000    0.4197357600000000 W
   0.8123566200000000    0.8200181000000000    0.4198244000000000 W
   0.3055603300000000    0.3164704200000000    0.3826964000000000 N
   0.3055966700000000    0.6504261600000000    0.3825323100000000 N
   0.3053985800000000    0.9834951800000000    0.3825256100000000 N
   0.6390241900000000    0.3163838900000000    0.3816350200000000 N
   0.6390355800000000    0.6500177800000000    0.3815271100000000 N
   0.6392202600000000    0.9833319700000001    0.3821830400000000 N
   0.9728434400000000    0.3163784700000000    0.3826733500000000 N
   0.9728813200000000    0.6503293800000000    0.3825346500000000 N
   0.9732298400000000    0.9834792500000000    0.3825891200000000 N
   0.1809549500000000    0.1707104900000000    0.6179473200000000 N
   0.1816904100000000    0.5032464700000000    0.6220886300000000 N
   0.1809882700000000    0.8345658200000000    0.6177908500000000 N
   0.5143528500000000    0.1689411300000000    0.6168250600000000 N
   0.5119390600000000    0.5027837900000000    0.6172571600000000 N
   0.5143061900000000    0.8361998100000000    0.6166957300000000 N
   0.8471183500000000    0.1690238700000000    0.6165091500000000 N
   0.8495165900000000    0.5027615600000001    0.6169316300000000 N
   0.8471598900000000    0.8361537999999999    0.6164181200000000 N
   0.1600521400000000    0.3288588200000000    0.5003002700000000 N
   0.1601984700000000    0.6576909600000000    0.5001389100000000 N
   0.1601975600000000    0.9932077900000000    0.4997161300000000 N
   0.4951786900000000    0.3267948000000000    0.4990895600000000 N
   0.4952201500000000    0.6593094900000001    0.4989497700000000 N
   0.4935708000000000    0.9930202500000000    0.4993434200000000 N
   0.8245305000000001    0.3267112500000000    0.4990399500000000 N
   0.8245403300000000    0.6593881900000000    0.4989105600000000 N
   0.8265611400000000    0.9929314299999999    0.4993469700000000 N
   0.1912327300000000    0.5086398600000001    0.6751106800000000 H
