H1 W18 N27
1.0
   8.3378969099999996    0.0000000000000000   -0.6339652200000000
  -0.0216028500000000    8.3473862400000005   -0.3007192200000000
   0.0000000000000000    0.0000000000000000   19.4415438899999984
W N H
18 27 1
direct
   0.0057194600000000   -0.0004978400000000    0.5781583400000000 W
   0.0022684800000000    0.3348396300000000    0.5789582800000000 W
   0.0057415800000000    0.6700339800000000    0.5781833900000000 W
   0.3386409600000000    0.0021888200000000    0.5782116899999999 W
   0.3393417100000000    0.3351832100000000    0.5822562100000001 W
   0.3386251800000000    0.6674487300000000    0.5782085300000001 W
   0.6715453700000000   -0.0004685900000000    0.5781696400000000 W
   0.6752511200000000    0.3348630400000000    0.5789694700000000 W
   0.6715158400000000    0.6700487800000000    0.5781979400000000 W
   0.1435683300000000    0.1549570300000000    0.4216837900000000 W
   0.1435846000000000    0.4882782600000000    0.4217070800000000 W
   0.1443945800000000    0.8214326000000000    0.4192022400000000 W
   0.4786010700000000    0.1549872900000000    0.4216830200000000 W
   0.4786034800000000    0.4883159300000000    0.4217038200000000 W
   0.4769453200000000    0.8214558800000000    0.4192169500000000 W
   0.8107697200000000    0.1540745600000000    0.4198998100000000 W
   0.8107731700000000    0.4889328400000000    0.4199185400000000 W
   0.8107160500000000    0.8214746700000000    0.4194453400000000 W
   0.3044633200000000    0.3184895200000000    0.3840898400000000 N
   0.3042040900000000    0.6502097700000000    0.3825144000000000 N
   0.3041995300000000    0.9865171300000000    0.3824863800000000 N
   0.6374482200000000    0.3184291300000000    0.3829151600000000 N
   0.6370149500000000    0.6511005800000000    0.3818195200000000 N
   0.6370063300000000    0.9855506900000000    0.3818044900000000 N
   0.9710839000000000    0.3184142100000000    0.3829235500000000 N
   0.9711413500000000    0.6510732100000000    0.3818214700000000 N
   0.9711357900000001    0.9855391800000000    0.3818033000000000 N
   0.1750432600000000    0.1673116000000000    0.6152271400000000 N
   0.1750948400000000    0.5084458500000000    0.6152471500000000 N
   0.1799262200000000    0.8380242500000000    0.6166881300000000 N
   0.5152834600000000    0.1673361500000000    0.6152425500000001 N
   0.5152260500000000    0.5084538500000000    0.6152689600000000 N
   0.5108999400000001    0.8380321300000000    0.6167052800000000 N
   0.8453186700000000    0.1706790000000000    0.6160425000000000 N
   0.8453018100000000    0.5052192300000000    0.6160544000000000 N
   0.8455360300000000    0.8380713900000000    0.6172351400000000 N
   0.1531130700000000    0.3282454400000000    0.5007551800000000 N
   0.1572000800000000    0.6637027599999999    0.4990952400000000 N
   0.1572379100000000    0.9925746700000000    0.4990851300000000 N
   0.4969031200000000    0.3282842900000000    0.5007579700000000 N
   0.4922194900000000    0.6637283600000000    0.4991062600000000 N
   0.4922111800000000    0.9926180600000000    0.4990937100000000 N
   0.8247432900000000    0.3281725400000000    0.4993954600000000 N
   0.8246697500000000    0.6627406300000001    0.4989726000000000 N
   0.8246703399999999    0.9935600200000000    0.4989510900000000 N
   0.3549192500000000    0.3421427200000000    0.6713533900000000 H
