H1 W18 N27
1.0
   8.3378969099999996    0.0000000000000000   -0.6339652200000000
  -0.0216028500000000    8.3473862400000005   -0.3007192200000000
   0.0000000000000000    0.0000000000000000   19.4415438899999984
W N H
18 27 1
direct
   0.0027511900000000    0.0029931500000000    0.5784264400000000 W
   0.0026714000000000    0.3407515200000000    0.5784008899999999 W
   0.0069652300000000    0.6719113300000000    0.5790644400000000 W
   0.3413618500000000    0.0030001600000000    0.5784697000000000 W
   0.3414595000000000    0.3407521300000000    0.5784526900000000 W
   0.3373763700000000    0.6719234800000000    0.5790695600000000 W
   0.6721686100000001    0.0051201300000000    0.5789188800000000 W
   0.6721819800000000    0.3385715800000000    0.5789969200000000 W
   0.6720924500000000    0.6717894800000000    0.5784914100000000 W
   0.1442895000000000    0.1583730400000000    0.4203547500000000 W
   0.1444801500000000    0.4914074500000000    0.4214147100000000 W
   0.1444619400000000    0.8255524900000000    0.4213008200000000 W
   0.4778095600000000    0.1583498800000000    0.4201388100000000 W
   0.4777525700000000    0.4919820900000000    0.4204061700000000 W
   0.4777270900000000    0.8247965300000000    0.4202422600000000 W
   0.8106693900000000    0.1583438600000000    0.4201158200000000 W
   0.8108255900000000    0.4919931600000000    0.4203961800000000 W
   0.8107847700000000    0.8247975200000000    0.4202300200000000 W
   0.3041470900000000    0.3223148200000000    0.3831095600000000 N
   0.3038018900000000    0.6552141400000000    0.3829254100000000 N
   0.3040538200000000    0.9882289000000000    0.3829214400000000 N
   0.6374925700000000    0.3218778000000000    0.3819062400000000 N
   0.6375993200000000    0.6550526500000000    0.3824996300000000 N
   0.6374691600000000    0.9882823100000000    0.3818691500000000 N
   0.9712953500000000    0.3223185500000000    0.3831163900000000 N
   0.9715639800000000    0.6552080800000000    0.3829276300000000 N
   0.9712970500000000    0.9882223500000000    0.3829251500000000 N
   0.1798055400000000    0.1758942200000000    0.6227503599999999 N
   0.1790577100000000    0.5073367000000000    0.6182098499999999 N
   0.1790824800000000    0.8431221300000000    0.6183555800000000 N
   0.5103083200000000    0.1751422400000000    0.6175167400000000 N
   0.5124883500000000    0.5086905300000000    0.6169892500000000 N
   0.5123329900000000    0.8414863299999999    0.6169683700000000 N
   0.8476408300000000    0.1751511400000000    0.6175003200000000 N
   0.8452367500000000    0.5086860200000000    0.6169889300000000 N
   0.8453920200000000    0.8414842100000000    0.6169713900000000 N
   0.1584367800000000    0.3292670000000000    0.5007136100000000 N
   0.1583080500000000    0.6651910400000000    0.5000853600000000 N
   0.1584131600000000    0.0007963000000000    0.5006427700000000 N
   0.4933739600000000    0.3312236100000000    0.4994813600000000 N
   0.4917676500000000    0.6652581400000001    0.4997463100000000 N
   0.4931732600000000    0.9987149500000000    0.4994209700000000 N
   0.8229344500000000    0.3312114500000000    0.4994576400000000 N
   0.8246443600000000    0.6652598000000000    0.4997377500000000 N
   0.8231085400000000    0.9987131800000000    0.4994007300000000 N
   0.1887563700000000    0.1816277100000000    0.6758427299999999 H
