H1 W36 N24
1.0
   8.1412555599999994    0.0000000000000000   -0.0072088000000000
  -0.0003590100000000    8.9274485400000003   -0.2580443100000000
   0.0000000000000000    0.0000000000000000   22.7155575100000000
W N H
36 24 1
direct
   0.2334328000000000    0.1295130200000000    0.6015411800000000 W
   0.2317566400000000    0.4497100700000000    0.6016634700000000 W
   0.2316067800000000    0.8090253600000000    0.6017297500000000 W
   0.7294148900000000    0.1294497000000000    0.6014938300000000 W
   0.7311057700000000    0.4498536000000000    0.6016617000000000 W
   0.7311535900000000    0.8088982200000000    0.6017389100000000 W
   0.4806945700000000    0.2775755100000000    0.3985429400000000 W
   0.4806659000000000    0.6140193100000000    0.3973891300000000 W
   0.4806369800000000    0.9500314000000000    0.3985266500000000 W
   0.9806125700000000    0.2915551300000000    0.3978886600000000 W
   0.9805797500000000    0.6137793600000000    0.3988054400000000 W
   0.9805863700000000    0.9359244600000000    0.3977662700000000 W
   0.2288695800000000    0.1098123500000000    0.3417572500000000 W
   0.2308288200000000    0.4440449100000000    0.3405201400000000 W
   0.2307438000000000    0.7754204300000000    0.3404410000000000 W
   0.7320604300000000    0.1097922200000000    0.3417125400000000 W
   0.7301318800000000    0.4440261100000000    0.3405179400000000 W
   0.7301383900000000    0.7754513500000000    0.3404177200000000 W
   0.4815522900000000    0.3004406200000000    0.6620702100000000 W
   0.4815211400000000    0.6331989700000000    0.6556252500000000 W
   0.4816193700000000    0.9671425299999999    0.6620653399999999 W
   0.9816754500000000    0.2971585500000000    0.6601420500000000 W
   0.9815170700000000    0.6331743000000000    0.6557461800000000 W
   0.9815133100000000    0.9701694199999999    0.6600759800000000 W
   0.4811365300000000    0.2914213800000000    0.5472120600000000 W
   0.4811977900000000    0.6259104300000000    0.5466655600000000 W
   0.4811785400000000    0.9601177700000000    0.5471596600000000 W
   0.9812236600000001    0.2875615900000000    0.5472839700000000 W
   0.9812292000000000    0.6258544100000000    0.5477633600000000 W
   0.9811547200000000    0.9637104600000000    0.5472488800000000 W
   0.2310063600000000    0.1172781100000000    0.4518632900000000 W
   0.2307932700000000    0.4531487300000000    0.4523483600000000 W
   0.2306298100000000    0.7815644899999999    0.4522965300000000 W
   0.7306287400000000    0.1172930700000000    0.4518665200000000 W
   0.7308310000000000    0.4530823300000000    0.4523721600000000 W
   0.7308787200000000    0.7815731700000000    0.4523335300000000 W
   0.2307179600000000    0.3001604700000000    0.6719248300000000 N
   0.2316384900000000    0.6339061400000000    0.6641726300000000 N
   0.2306951200000000    0.9689181400000000    0.6719170000000000 N
   0.7326478900000000    0.3000641600000000    0.6719242900000000 N
   0.7315189400000000    0.6339081400000000    0.6642260900000000 N
   0.7325607300000000    0.9689334600000000    0.6718900100000000 N
   0.4804053000000000    0.1090347500000000    0.3300097300000000 N
   0.4804314600000000    0.4410415300000000    0.3307828800000000 N
   0.4803888000000000    0.7771685200000000    0.3306678100000000 N
   0.9803995800000000    0.1092111500000000    0.3339284400000000 N
   0.9804033000000000    0.4442195000000000    0.3285309600000000 N
   0.9803638400000000    0.7731193000000000    0.3284762300000000 N
   0.4809062600000000    0.1199274400000000    0.4738814600000000 N
   0.4808451100000000    0.4538697500000000    0.4717796100000000 N
   0.4808195000000000    0.7857468900000000    0.4718061500000000 N
   0.9808663700000000    0.1191747900000000    0.4687650100000000 N
   0.9809211100000000    0.4492214200000000    0.4737130100000000 N
   0.9808505300000000    0.7904831500000000    0.4735749800000000 N
   0.2308475500000000    0.2916518800000000    0.5263171500000000 N
   0.2305291600000000    0.6239758100000000    0.5321766700000000 N
   0.2307947700000000    0.9546717500000000    0.5262037600000000 N
   0.7314016900000000    0.2915785100000000    0.5263530100000000 N
   0.7316707900000000    0.6238934400000000    0.5320536900000000 N
   0.7313772800000000    0.9547094800000000    0.5262550200000000 N
   0.4803108300000000    0.1375400600000000    0.7138243399999999 H
