H1 W36 N27
1.0
   8.9183705999999994    0.0000000000000000    0.0000000000000000
  -4.4591852999999997    7.7235354899999997    0.0000000000000000
   0.0000000000000000    0.0000000000000000   24.2330780600000004
W N H
36 27 1
direct
   0.1111111100000000    0.2222222233333334    0.4436490200000001 W
   0.1111111100000000    0.5555555566666667    0.4436490200000001 W
   0.1111111100000001    0.8888888900000000    0.4436490200000001 W
   0.4444444433333333    0.2222222233333334    0.4436490200000001 W
   0.4444444433333333    0.5555555566666667    0.4436490200000001 W
   0.4444444433333333    0.8888888900000000    0.4436490200000001 W
   0.7777777766666666    0.2222222233333334    0.4436490200000001 W
   0.7777777766666666    0.5555555566666667    0.4436490200000001 W
   0.7777777766666667    0.8888888900000000    0.4436490200000001 W
   0.2222222233333334    0.1111111100000000    0.5563662500000000 W
   0.2222222233333333    0.4444444433333333    0.5563662500000000 W
   0.2222222233333334    0.7777777766666667    0.5563662500000000 W
   0.5555555566666667    0.1111111100000000    0.5563662500000000 W
   0.5555555566666666    0.4444444433333333    0.5563662500000000 W
   0.5555555566666667    0.7777777766666667    0.5563662500000000 W
   0.8888888899999999    0.1111111100000000    0.5563662500000000 W
   0.8888888899999999    0.4444444433333333    0.5563662500000000 W
   0.8888888900000000    0.7777777766666667    0.5563662500000000 W
   0.0000000000000000    0.0000000000000000    0.3504520900000000 W
   0.0000000000000000    0.3333333333333333    0.3504520900000000 W
   0.0000000000000000    0.6666666666666666    0.3504520900000000 W
   0.3333333333333333    0.0000000000000000    0.3504520900000000 W
   0.3333333333333333    0.3333333333333333    0.3504520900000000 W
   0.3333333333333333    0.6666666666666666    0.3504520900000000 W
   0.6666666666666666    0.0000000000000000    0.3504520900000000 W
   0.6666666666666666    0.3333333333333333    0.3504520900000000 W
   0.6666666666666666    0.6666666666666666    0.3504520900000000 W
   0.0000000000000000    0.0000000000000000    0.6495372300000000 W
   0.0000000000000000    0.3333333333333333    0.6495372300000000 W
   0.0000000000000000    0.6666666666666666    0.6495372300000000 W
   0.3333333333333333    0.0000000000000000    0.6495372300000000 W
   0.3333333333333333    0.3333333333333333    0.6495372300000000 W
   0.3333333333333333    0.6666666666666666    0.6495372300000000 W
   0.6666666666666666    0.0000000000000000    0.6495372300000000 W
   0.6666666666666666    0.3333333333333333    0.6495372300000000 W
   0.6666666666666666    0.6666666666666666    0.6495372300000000 W
   0.0000000000000000    0.0000000000000000    0.5000099900000000 N
   0.0000000000000000    0.3333333333333333    0.5000099900000000 N
   0.0000000000000000    0.6666666666666666    0.5000099900000000 N
   0.3333333333333333    0.0000000000000000    0.5000099900000000 N
   0.3333333333333333    0.3333333333333333    0.5000099900000000 N
   0.3333333333333333    0.6666666666666666    0.5000099900000000 N
   0.6666666666666666    0.0000000000000000    0.5000099900000000 N
   0.6666666666666666    0.3333333333333333    0.5000099900000000 N
   0.6666666666666666    0.6666666666666666    0.5000099900000000 N
   0.2222222233333334    0.1111111100000000    0.3092030300000000 N
   0.2222222233333333    0.4444444433333333    0.3092030300000000 N
   0.2222222233333334    0.7777777766666667    0.3092030300000000 N
   0.5555555566666667    0.1111111100000000    0.3092030300000000 N
   0.5555555566666666    0.4444444433333333    0.3092030300000000 N
   0.5555555566666667    0.7777777766666667    0.3092030300000000 N
   0.8888888899999999    0.1111111100000000    0.3092030300000000 N
   0.8888888899999999    0.4444444433333333    0.3092030300000000 N
   0.8888888900000000    0.7777777766666667    0.3092030300000000 N
   0.1111111100000000    0.2222222233333334    0.6907824000000000 N
   0.1111111100000000    0.5555555566666667    0.6907824000000000 N
   0.1111111100000001    0.8888888900000000    0.6907824000000000 N
   0.4444444433333333    0.2222222233333334    0.6907824000000000 N
   0.4444444433333333    0.5555555566666667    0.6907824000000000 N
   0.4444444433333333    0.8888888900000000    0.6907824000000000 N
   0.7777777766666666    0.2222222233333334    0.6907824000000000 N
   0.7777777766666666    0.5555555566666667    0.6907824000000000 N
   0.7777777766666667    0.8888888900000000    0.6907824000000000 N
   0.5555555544444450    0.4444444455555557    0.7320483092470237 H
