H1 W36 N24
1.0
   8.1412555599999994    0.0000000000000000   -0.0072088000000000
  -0.0003590100000000    8.9274485400000003   -0.2580443100000000
   0.0000000000000000    0.0000000000000000   22.7155575100000000
W N H
36 24 1
direct
   0.2285072050000000    0.1280483833333333    0.6020997700000000 W
   0.2285072050000000    0.4613817166666666    0.6020997700000000 W
   0.2285072050000000    0.7947150499999999    0.6020997700000001 W
   0.7285072049999999    0.1280483833333333    0.6020997700000000 W
   0.7285072049999999    0.4613817166666666    0.6020997700000000 W
   0.7285072049999999    0.7947150499999999    0.6020997700000000 W
   0.4780017250000000    0.2799554233333333    0.3979063500000000 W
   0.4780017249999999    0.6132887566666665    0.3979063500000000 W
   0.4780017250000000    0.9466220900000000    0.3979063500000000 W
   0.9780017249999999    0.2799554233333333    0.3979063500000000 W
   0.9780017249999999    0.6132887566666665    0.3979063500000000 W
   0.9780017249999999    0.9466220900000000    0.3979063500000000 W
   0.2278443600000000    0.1090709133333333    0.3405635800000000 W
   0.2278443600000000    0.4424042466666667    0.3405635800000000 W
   0.2278443600000000    0.7757375799999999    0.3405635800000000 W
   0.7278443600000001    0.1090709133333333    0.3405635800000000 W
   0.7278443600000000    0.4424042466666667    0.3405635800000000 W
   0.7278443600000000    0.7757375799999999    0.3405635800000000 W
   0.4786473500000000    0.2988834100000000    0.6594169500000000 W
   0.4786473500000000    0.6322167433333332    0.6594169500000000 W
   0.4786473500000001    0.9655500766666666    0.6594169500000000 W
   0.9786473500000000    0.2988834100000000    0.6594169500000000 W
   0.9786473499999999    0.6322167433333332    0.6594169500000000 W
   0.9786473499999999    0.9655500766666666    0.6594169499999999 W
   0.4783812600000000    0.2908558133333333    0.5483173000000001 W
   0.4783812599999999    0.6241891466666666    0.5483173000000000 W
   0.4783812600000000    0.9575224799999997    0.5483173000000000 W
   0.9783812600000000    0.2908558133333333    0.5483173000000000 W
   0.9783812600000000    0.6241891466666666    0.5483173000000000 W
   0.9783812599999999    0.9575224799999997    0.5483172999999999 W
   0.2281398500000000    0.1172541300000000    0.4516906000000001 W
   0.2281398500000000    0.4505874633333333    0.4516906000000001 W
   0.2281398500000000    0.7839207966666666    0.4516906000000000 W
   0.7281398500000000    0.1172541300000000    0.4516906000000001 W
   0.7281398500000000    0.4505874633333333    0.4516906000000000 W
   0.7281398499999999    0.7839207966666666    0.4516906000000001 W
   0.2286708550000000    0.2997861333333333    0.6711042300000001 N
   0.2286708550000000    0.6331194666666666    0.6711042300000000 N
   0.2286708550000000    0.9664527999999999    0.6711042300000000 N
   0.7286708550000000    0.2997861333333333    0.6711042300000000 N
   0.7286708550000000    0.6331194666666666    0.6711042300000000 N
   0.7286708549999998    0.9664527999999999    0.6711042300000001 N
   0.4778395599999999    0.1082373100000000    0.3289050099999999 N
   0.4778395600000000    0.4415706433333332    0.3289050100000000 N
   0.4778395600000000    0.7749039766666665    0.3289050100000000 N
   0.9778395600000001    0.1082373100000000    0.3289050100000000 N
   0.9778395599999999    0.4415706433333332    0.3289050100000000 N
   0.9778395599999999    0.7749039766666665    0.3289050100000000 N
   0.4781785350000000    0.1187673733333333    0.4714689400000000 N
   0.4781785350000000    0.4521007066666666    0.4714689400000000 N
   0.4781785350000000    0.7854340399999999    0.4714689400000000 N
   0.9781785350000000    0.1187673733333333    0.4714689400000000 N
   0.9781785349999998    0.4521007066666666    0.4714689400000000 N
   0.9781785350000000    0.7854340399999999    0.4714689400000000 N
   0.2283218000000000    0.2895081099999999    0.5285272600000001 N
   0.2283218000000000    0.6228414433333332    0.5285272600000001 N
   0.2283218000000000    0.9561747766666664    0.5285272599999999 N
   0.7283218000000000    0.2895081099999999    0.5285272599999999 N
   0.7283217999999999    0.6228414433333332    0.5285272599999999 N
   0.7283218000000000    0.9561747766666664    0.5285272600000001 N
   0.5620973783564289    0.4135318020806365    0.7157013521470602 H
