H1 W45 N27
1.0
   8.8091896799999994    0.0000000000000000   -0.0322629300000000
  -0.0041149800000000    8.8105912800000006    0.0003707700000000
   0.0000000000000000    0.0000000000000000   23.8006870200000016
W N H
45 27 1
direct
   0.1028106400000000    0.2402808000000000    0.3319313900000000 W
   0.1002668200000000    0.5706846200000000    0.3321260500000000 W
   0.1039965900000000    0.9037423999999999    0.3317488800000000 W
   0.4350783900000000    0.2351228000000000    0.3313183400000000 W
   0.4352887200000000    0.5703303100000000    0.3321643800000000 W
   0.4350520700000000    0.9087337800000000    0.3322505700000000 W
   0.7682015700000000    0.2401654100000000    0.3319315200000000 W
   0.7707845100000000    0.5704869100000000    0.3323382700000000 W
   0.7670561000000000    0.9041109200000000    0.3315291600000000 W
   0.0967810500000000    0.2279955600000000    0.6687461700000000 W
   0.1139853000000000    0.5700227600000000    0.6660334400000000 W
   0.0978580500000000    0.9124716200000000    0.6691795000000000 W
   0.4386635600000000    0.2429362500000000    0.6658692200000000 W
   0.4391099300000000    0.5700006200000000    0.6713264700000000 W
   0.4384692200000000    0.9005081500000000    0.6652796300000000 W
   0.7816946000000000    0.2280797100000000    0.6686491400000000 W
   0.7639971800000001    0.5694320600000000    0.6661545300000000 W
   0.7810033900000000    0.9126174700000000    0.6692446300000000 W
   0.2710277800000000    0.0704603400000000    0.5875149600000000 W
   0.2703915400000000    0.4028773700000000    0.5882528000000000 W
   0.2697562700000000    0.7364152300000000    0.5883296600000000 W
   0.6063483600000000    0.0703077600000000    0.5877015600000000 W
   0.6062790600000000    0.4028362400000000    0.5884375500000000 W
   0.6071655500000001    0.7378174400000000    0.5886192099999999 W
   0.9387638100000000    0.0653501000000000    0.5850709900000000 W
   0.9384682100000000    0.4054313300000000    0.5887449200000000 W
   0.9375345899999999    0.7365341000000000    0.5882210800000000 W
   0.2653523300000000    0.0721596400000000    0.4111903500000000 W
   0.2711668400000000    0.4045773600000000    0.4117573500000000 W
   0.2700633400000000    0.7377486100000000    0.4113563200000000 W
   0.6076133800000000    0.0719277800000000    0.4110433700000000 W
   0.6010890600000000    0.4043289100000000    0.4117573900000000 W
   0.6024186100000000    0.7383276100000000    0.4113351900000000 W
   0.9364670600000000    0.0674457400000000    0.4116528300000000 W
   0.9365093100000000    0.4029481500000000    0.4116574100000000 W
   0.9353745300000000    0.7392815700000001    0.4116159400000000 W
   0.0866303900000000    0.2467333000000000    0.5003272100000000 W
   0.1184049300000000    0.5808175600000000    0.4973019000000000 W
   0.1048012300000000    0.8874349800000000    0.5005878100000000 W
   0.4347649800000000    0.2246850600000000    0.4966219200000000 W
   0.4421645500000000    0.5644074300000000    0.5045846300000000 W
   0.4369954000000000    0.9290188400000000    0.4962539700000000 W
   0.7904976500000001    0.2430122500000000    0.5002662400000000 W
   0.7502698000000000    0.5768916800000000    0.4976577000000000 W
   0.7693025800000000    0.8950113600000000    0.5004837300000000 W
   0.2757991100000000    0.0703807300000000    0.6822817799999999 N
   0.2664232200000000    0.3970924900000000    0.6825382600000000 N
   0.2675520600000000    0.7425074000000000    0.6820977000000000 N
   0.6027109000000000    0.0701104700000000    0.6818119300000000 N
   0.6117527600000000    0.3968120200000000    0.6824811900000000 N
   0.6109995000000000    0.7427508400000000    0.6818340100000000 N
   0.9394327600000000    0.0701687800000000    0.7018124100000001 N
   0.9393750700000000    0.4070782300000000    0.6814860400000000 N
   0.9390910500000000    0.7334547600000000    0.6810038300000000 N
   0.2674821200000000    0.0714538200000000    0.3130292800000000 N
   0.2691185200000000    0.4049305900000000    0.3154092100000000 N
   0.2692217900000000    0.7373660200000000    0.3161787900000000 N
   0.6027477700000000    0.0712722000000000    0.3133178300000000 N
   0.6012230300000000    0.4048889800000000    0.3158212900000000 N
   0.6014104000000000    0.7373509000000000    0.3166512800000000 N
   0.9352939800000000    0.0715774400000000    0.3175515600000000 N
   0.9352740800000000    0.4041367600000000    0.3133519200000000 N
   0.9352195100000000    0.7389185300000000    0.3147906800000000 N
   0.2483944600000000    0.0752254800000000    0.4992354300000000 N
   0.2711392900000000    0.3961708700000000    0.4999715300000000 N
   0.2930945700000000    0.7453496900000000    0.4998662000000000 N
   0.6220000400000000    0.0796026700000000    0.4992046300000000 N
   0.6047776400000000    0.3879363000000000    0.5000702400000000 N
   0.5845454700000000    0.7495629300000000    0.4999505300000000 N
   0.9421430700000000    0.0584549400000000    0.4992431100000000 N
   0.9354217200000000    0.4321355500000000    0.4995081900000000 N
   0.9325948500000000    0.7217947300000001    0.4993893300000000 N
   0.4401199000000000    0.5693622400000000    0.7445409200000001 H
