H1 W45 N27
1.0
   8.8091896799999994    0.0000000000000000   -0.0322629300000000
  -0.0041149800000000    8.8105912800000006    0.0003707700000000
   0.0000000000000000    0.0000000000000000   23.8006870200000016
W N H
45 27 1
direct
   0.0992142100000000    0.2402376100000000    0.3319356300000000 W
   0.1009432300000000    0.5696407200000000    0.3323196700000000 W
   0.1026751700000000    0.9077844900000001    0.3315531500000000 W
   0.4354239100000000    0.2410597300000000    0.3323090200000000 W
   0.4367387700000000    0.5754833300000000    0.3313991600000000 W
   0.4361305500000000    0.9019941400000000    0.3321605400000000 W
   0.7707536100000000    0.2402299300000000    0.3319016900000000 W
   0.7674172600000000    0.5709333800000000    0.3316428000000000 W
   0.7664097800000000    0.9067693100000001    0.3318520400000000 W
   0.1114719500000000    0.2432550100000000    0.6661391600000000 W
   0.0950195600000000    0.5829506700000000    0.6689358800000000 W
   0.0950967400000000    0.8987238600000000    0.6690789300000000 W
   0.4374337900000000    0.2412886200000000    0.6712725200000000 W
   0.4373363400000000    0.5679442300000000    0.6658290300000000 W
   0.4379842800000000    0.9119556500000000    0.6653902900000001 W
   0.7622123800000000    0.2405990100000000    0.6658886100000000 W
   0.7796461300000000    0.5834382400000000    0.6687795200000000 W
   0.7785029400000000    0.8992325400000000    0.6690605500000000 W
   0.2678217600000000    0.0726056100000000    0.5884977900000000 W
   0.2677905500000000    0.4089193400000000    0.5886155800000000 W
   0.2687502900000000    0.7415315300000000    0.5879284000000000 W
   0.6044730800000000    0.0754289700000000    0.5882273099999999 W
   0.6048006500000001    0.4099365700000000    0.5882209600000000 W
   0.6024850400000000    0.7412161300000000    0.5873957800000000 W
   0.9385008900000000    0.0751431700000000    0.5879954900000000 W
   0.9356470800000000    0.4064220000000000    0.5887063300000001 W
   0.9348462200000000    0.7461406200000000    0.5852926000000001 W
   0.2696425400000000    0.0721986200000000    0.4113600500000000 W
   0.2706884500000000    0.4067152100000000    0.4117305200000000 W
   0.2647876800000000    0.7394913700000000    0.4110285600000000 W
   0.6013988500000000    0.0731022100000000    0.4113977000000000 W
   0.6013354600000000    0.4067124900000000    0.4116278100000000 W
   0.6057953200000000    0.7394130700000000    0.4114580600000000 W
   0.9374915600000000    0.0719229500000000    0.4114380000000000 W
   0.9347839800000000    0.4074678300000000    0.4118057700000000 W
   0.9355796100000000    0.7427638700000000    0.4116101500000000 W
   0.1229025500000000    0.2385520700000000    0.4968966600000000 W
   0.0803324900000000    0.5721322300000000    0.5008638500000000 W
   0.1085835900000000    0.9083138100000000    0.5000864900000001 W
   0.4255844500000000    0.2503755100000000    0.5045739500000000 W
   0.4434049000000000    0.5821016500000000    0.4964511900000000 W
   0.4335247200000000    0.8848270499999999    0.4963262600000000 W
   0.7605610900000001    0.2253330400000000    0.4973447400000000 W
   0.7829712900000000    0.5664433200000000    0.4998743100000000 W
   0.7669354700000000    0.9283607100000000    0.5006138500000000 W
   0.2650418600000000    0.0690486500000000    0.6814820700000001 N
   0.2651344200000000    0.4145054700000000    0.6830700400000000 N
   0.2740855000000000    0.7417954400000000    0.6817662799999999 N
   0.6090460700000000    0.0689957900000000    0.6825682800000000 N
   0.6102555000000000    0.4143446900000000    0.6824812000000000 N
   0.6004567800000000    0.7408717100000000    0.6818089500000000 N
   0.9377337400000000    0.0779105800000000    0.6806788400000000 N
   0.9366817100000000    0.4044161400000000    0.6816492600000000 N
   0.9379284300000000    0.7410764000000000    0.7014357900000000 N
   0.2689333000000000    0.0736635600000000    0.3168312900000000 N
   0.2691008600000000    0.4061714400000000    0.3160813000000000 N
   0.2666654800000000    0.7391716200000000    0.3149676400000000 N
   0.6011169600000000    0.0735890700000000    0.3163135100000000 N
   0.6014697600000000    0.4054985500000000    0.3147031200000000 N
   0.6027927700000000    0.7390949200000000    0.3122228600000000 N
   0.9342613400000001    0.0720449700000000    0.3141382200000000 N
   0.9344538200000000    0.4068358500000000    0.3124235600000000 N
   0.9351707000000000    0.7392412800000000    0.3176662300000000 N
   0.2857831700000000    0.0640226200000000    0.4999360200000000 N
   0.2654701500000000    0.4286943500000000    0.5001922300000000 N
   0.2571277800000000    0.7241338000000000    0.4994205500000000 N
   0.5771511600000000    0.0705713300000000    0.5000071900000000 N
   0.6064458000000000    0.4068887300000000    0.4997826400000000 N
   0.6236042900000000    0.7408803400000000    0.4991513500000000 N
   0.9483487200000000    0.0831064300000000    0.4992090000000000 N
   0.9363854400000000    0.3821918100000000    0.4995822800000000 N
   0.9261476600000000    0.7556018600000000    0.4993906400000000 N
   0.4379380300000000    0.2400071600000000    0.7443887600000000 H
