H1 W45 N27
1.0
   8.8091896799999994    0.0000000000000000   -0.0322629300000000
  -0.0041149800000000    8.8105912800000006    0.0003707700000000
   0.0000000000000000    0.0000000000000000   23.8006870200000016
W N H
45 27 1
direct
   0.1103527900000000    0.2282864400000000    0.3297258900000000 W
   0.0968539500000000    0.5713790900000000    0.3314494400000000 W
   0.1098160900000000    0.9109678400000000    0.3296552800000000 W
   0.4273208900000000    0.2287670800000000    0.3296824300000000 W
   0.4403510300000000    0.5713500600000000    0.3311948300000000 W
   0.4281935200000000    0.9111289500000000    0.3297943800000000 W
   0.7693606800000000    0.2435603100000000    0.3318602600000000 W
   0.7691325300000000    0.5688265300000001    0.3300706400000000 W
   0.7686418100000000    0.9007188000000000    0.3314262500000000 W
   0.1154838400000000    0.2492977700000000    0.6695890300000000 W
   0.1146078700000000    0.5633857400000000    0.6704361700000000 W
   0.1009879600000000    0.9032424100000001    0.6669773400000000 W
   0.4278969000000000    0.2499843100000000    0.6689439500000000 W
   0.4292559000000000    0.5635324100000000    0.6706460200000000 W
   0.4434438500000000    0.9027576500000000    0.6669107100000000 W
   0.7729506100000000    0.2329707400000000    0.6671752200000000 W
   0.7726645400000000    0.5731001300000000    0.6666026400000000 W
   0.7718680400000000    0.9083552700000000    0.6678706000000000 W
   0.2711663100000000    0.0711835500000000    0.5881799300000000 W
   0.2712963400000000    0.4108934400000000    0.5876370300000000 W
   0.2719438500000000    0.7409640000000000    0.5879251400000000 W
   0.6062540300000000    0.0699182500000000    0.5864625500000000 W
   0.6045043600000000    0.4050910300000000    0.5876727899999999 W
   0.6075915400000000    0.7384723600000000    0.5867829100000000 W
   0.9363025900000000    0.0693729300000000    0.5864097800000000 W
   0.9375694300000000    0.4049153200000000    0.5877816500000000 W
   0.9349816100000000    0.7409312600000000    0.5866247300000000 W
   0.2697155500000000    0.0678110600000000    0.4132847400000000 W
   0.2698554200000000    0.4095035700000000    0.4105759200000000 W
   0.2701882200000000    0.7355107100000000    0.4112971800000000 W
   0.6054338900000000    0.0696139600000000    0.4107504200000000 W
   0.5975059900000000    0.4018306700000000    0.4113138100000000 W
   0.6037063000000000    0.7340523200000000    0.4110812900000000 W
   0.9343557600000000    0.0692338000000000    0.4108455500000000 W
   0.9412052300000000    0.4018318700000000    0.4113350500000000 W
   0.9364543900000000    0.7357795000000000    0.4112140300000000 W
   0.1208479200000000    0.2292340900000000    0.4994159800000000 W
   0.1075106700000000    0.5861892100000000    0.5007021000000000 W
   0.0884461700000000    0.8971934499999999    0.4974662300000000 W
   0.4185902300000000    0.2325434200000000    0.4991880900000000 W
   0.4330864600000000    0.5811462200000000    0.5008377600000000 W
   0.4575091200000000    0.8990241900000000    0.4973593700000000 W
   0.7722873700000000    0.2532867300000000    0.5002454800000000 W
   0.7714670900000000    0.5467131300000000    0.4958036200000000 W
   0.7669519299999999    0.9098171100000000    0.5023414400000000 W
   0.2724949700000000    0.0695847200000000    0.6815108400000000 N
   0.2722004800000000    0.4056566900000000    0.7144079100000000 N
   0.2720973800000000    0.7392405500000000    0.6845664299999999 N
   0.5991536700000000    0.0769618100000000    0.6798236700000000 N
   0.6072230800000000    0.4050692200000000    0.6819411399999999 N
   0.6031773600000000    0.7342505700000000    0.6801863100000000 N
   0.9453523800000000    0.0763317900000000    0.6803533200000000 N
   0.9373522200000000    0.4051834400000000    0.6826937900000000 N
   0.9415561000000000    0.7345212200000000    0.6802898700000000 N
   0.2685700500000000    0.0694572900000000    0.2977382300000000 N
   0.2686922600000000    0.4056097100000000    0.3169027900000000 N
   0.2686321400000000    0.7346058600000001    0.3161976200000000 N
   0.6044261600000000    0.0707975300000000    0.3161158500000000 N
   0.5975908900000000    0.3997133000000000    0.3164504700000000 N
   0.5994106100000000    0.7407441000000000    0.3163273400000000 N
   0.9330133200000000    0.0702839500000000    0.3160576000000000 N
   0.9402078100000000    0.3996748900000000    0.3163030400000000 N
   0.9380742399999999    0.7409375600000000    0.3162458100000000 N
   0.2726080300000000    0.0440542900000000    0.4996806400000000 N
   0.2665954600000000    0.4140015800000000    0.4991515800000000 N
   0.2736476200000000    0.7578456400000000    0.4996611000000000 N
   0.6052318500000000    0.0872850600000000    0.4987752200000000 N
   0.5839862800000000    0.3994470900000000    0.4994692700000000 N
   0.6211801200000000    0.7240697400000000    0.4987848800000000 N
   0.9342651500000000    0.0814422200000000    0.4988116800000000 N
   0.9603335800000000    0.4013435000000000    0.4996146200000000 N
   0.9177901000000001    0.7282054300000000    0.4988390000000000 N
   0.2725828500000000    0.4036993900000000    0.7578341600000000 H
