H1 W45 N27
1.0
   8.8091896799999994    0.0000000000000000   -0.0322629300000000
  -0.0041149800000000    8.8105912800000006    0.0003707700000000
   0.0000000000000000    0.0000000000000000   23.8006870200000016
W N H
45 27 1
direct
   0.0964357000000000    0.2371009300000000    0.3332252300000000 W
   0.1100774200000000    0.5795485200000000    0.3308885300000000 W
   0.1101246700000000    0.8984573800000000    0.3303931700000000 W
   0.4383048600000000    0.2394841200000000    0.3328677600000000 W
   0.4279559700000000    0.5791443100000000    0.3308429400000000 W
   0.4287771800000000    0.8965940500000000    0.3308600000000000 W
   0.7704025300000000    0.2382550700000000    0.3307856200000000 W
   0.7687046500000000    0.5683740800000000    0.3330929800000000 W
   0.7671181500000001    0.9091982000000000    0.3326385200000000 W
   0.1122896000000000    0.2391176700000000    0.6664161300000000 W
   0.0975716100000000    0.5820571700000000    0.6696278200000000 W
   0.0977510700000000    0.8990446100000000    0.6697298500000000 W
   0.4386471700000000    0.2404013300000000    0.6712982600000000 W
   0.4379383700000000    0.5680739600000000    0.6667581299999999 W
   0.4393457600000000    0.9105204600000000    0.6665930200000000 W
   0.7663753200000000    0.2410733000000000    0.6669327300000000 W
   0.7814989500000000    0.5825612000000000    0.6690711600000000 W
   0.7806401900000000    0.8973556600000000    0.6689474100000000 W
   0.2701936300000000    0.0717803300000000    0.5884719400000000 W
   0.2691504000000000    0.4105190700000000    0.5886662800000000 W
   0.2711305600000000    0.7411555100000000    0.5880207600000000 W
   0.6033500900000000    0.0730893600000000    0.5887811500000000 W
   0.6062020700000000    0.4076434000000000    0.5890609500000000 W
   0.6041614199999999    0.7397138200000000    0.5886922700000000 W
   0.9360863699999999    0.0737976700000000    0.5885526700000000 W
   0.9378521200000000    0.4054205500000000    0.5892153400000000 W
   0.9409297400000000    0.7444804100000000    0.5851981500000000 W
   0.2704221900000000    0.0710910900000000    0.4111276000000000 W
   0.2700709700000000    0.4053723000000000    0.4112239400000000 W
   0.2672193000000000    0.7404600000000000    0.4143628900000000 W
   0.6037994400000000    0.0734058800000000    0.4114941000000000 W
   0.6030696000000000    0.4047981300000000    0.4116762100000000 W
   0.6039441500000000    0.7383404200000000    0.4111239800000000 W
   0.9345135600000000    0.0699333200000000    0.4115789400000000 W
   0.9370457400000000    0.4069606400000000    0.4116066300000000 W
   0.9380158900000000    0.7397541800000000    0.4118152300000000 W
   0.1045277700000000    0.2147739600000000    0.4989300000000000 W
   0.0948167200000000    0.5756748300000000    0.4999839100000000 W
   0.1084684100000000    0.9208965400000000    0.5004240400000000 W
   0.4377958400000000    0.2577476000000000    0.5050397200000000 W
   0.4269694000000000    0.5597968400000000    0.4976102900000000 W
   0.4532454100000000    0.8978603500000000    0.4983431700000000 W
   0.7698125000000000    0.2442021600000000    0.4953347000000000 W
   0.7909064099999999    0.5673936800000000    0.5019925800000000 W
   0.7488424800000000    0.9035302600000000    0.5010993900000000 W
   0.2676551100000000    0.0682363600000000    0.6825576300000000 N
   0.2664028400000000    0.4124542400000000    0.6826226000000000 N
   0.2749783000000000    0.7402540600000000    0.6831212500000000 N
   0.6113611500000000    0.0681539800000000    0.6818262600000000 N
   0.6115468300000000    0.4133691200000000    0.6824083200000000 N
   0.6029417300000000    0.7400771100000000    0.6827894799999999 N
   0.9386269500000000    0.0767129400000000    0.6820880800000000 N
   0.9391455100000000    0.4035746400000000    0.6825949000000000 N
   0.9394318400000000    0.7400629900000000    0.7019946900000000 N
   0.2694310700000000    0.0738758100000000    0.3166963400000000 N
   0.2680448500000000    0.4026811400000000    0.3169849700000000 N
   0.2688562100000000    0.7384334600000000    0.2988929800000000 N
   0.5983868700000000    0.0692645800000000    0.3172261700000000 N
   0.5985916000000000    0.4080728000000000    0.3174817500000000 N
   0.6040620400000000    0.7381945900000000    0.3159957100000000 N
   0.9384850600000000    0.0680341000000000    0.3159657600000000 N
   0.9387782600000000    0.4093526400000000    0.3169583200000000 N
   0.9335731000000000    0.7386340100000000    0.3175380900000000 N
   0.2940927700000000    0.0713291200000000    0.4999111400000000 N
   0.2487141300000000    0.3992111700000000    0.4999112300000000 N
   0.2704181300000000    0.7431879400000000    0.5003493900000000 N
   0.5958660300000000    0.0847302200000000    0.5000852700000000 N
   0.6121560300000000    0.4192759000000000    0.5002252000000000 N
   0.6063412800000000    0.7130357700000000    0.4997782800000000 N
   0.9204715200000000    0.0632447900000000    0.4998311200000000 N
   0.9526803600000000    0.3911844600000000    0.5002136200000000 N
   0.9354389800000000    0.7580067300000000    0.4993688600000000 N
   0.4408336900000000    0.2395293800000000    0.7444610400000000 H
