H1 W45 N27
1.0
   8.8091896799999994    0.0000000000000000   -0.0322629300000000
  -0.0041149800000000    8.8105912800000006    0.0003707700000000
   0.0000000000000000    0.0000000000000000   23.8006870200000016
W N H
45 27 1
direct
   0.0966739400000000    0.2418535300000000    0.3303321900000000 W
   0.0953763100000000    0.5618146100000000    0.3306035100000000 W
   0.1059579600000000    0.9029107900000000    0.3329142200000000 W
   0.4351547600000000    0.2304455000000000    0.3327403400000000 W
   0.4338585200000000    0.5723066100000000    0.3325104100000000 W
   0.4353537400000000    0.9035478400000000    0.3310216500000000 W
   0.7757251900000000    0.2434309500000000    0.3305981800000000 W
   0.7767969100000000    0.5626084700000000    0.3309964500000000 W
   0.7653409200000000    0.9008450300000000    0.3317909000000000 W
   0.0977194800000000    0.2296961600000000    0.6696203100000000 W
   0.1116535000000000    0.5695206300000000    0.6663285600000000 W
   0.0961531200000000    0.9137161000000000    0.6688117600000000 W
   0.4392128000000000    0.2453225900000000    0.6665140200000000 W
   0.4384974300000000    0.5710653800000000    0.6708837800000000 W
   0.4377131500000000    0.8975365400000000    0.6666357900000000 W
   0.7807057900000000    0.2303569400000000    0.6694586600000000 W
   0.7691221700000000    0.5711074500000000    0.6659947400000000 W
   0.7814057700000000    0.9131038000000000    0.6693344000000000 W
   0.2726387300000000    0.0721457900000000    0.5889320700000000 W
   0.2680981600000000    0.4015234400000000    0.5883064700000000 W
   0.2702189300000000    0.7396823700000000    0.5885492800000000 W
   0.6037856800000000    0.0685211100000000    0.5884815400000000 W
   0.6045853400000000    0.4026117600000000    0.5883425200000000 W
   0.6062135400000001    0.7383550000000000    0.5884467300000000 W
   0.9329069800000001    0.0746501800000000    0.5855446200000000 W
   0.9375585100000000    0.4044746700000000    0.5876096100000000 W
   0.9375611100000000    0.7377089400000000    0.5883585700000000 W
   0.2689523200000000    0.0708870000000000    0.4119596600000000 W
   0.2699988100000000    0.4027884400000000    0.4115674100000000 W
   0.2698604300000000    0.7342769700000000    0.4116345100000000 W
   0.6032885800000000    0.0677319000000000    0.4117183500000000 W
   0.6020366400000000    0.4026466100000000    0.4111043400000000 W
   0.6041328500000001    0.7353908100000000    0.4112280100000000 W
   0.9331317900000000    0.0697908600000000    0.4113892800000000 W
   0.9366589100000000    0.3973861200000000    0.4135886100000000 W
   0.9358699700000001    0.7384116300000000    0.4104841300000000 W
   0.1111786500000000    0.2246943300000000    0.4997820500000000 W
   0.0972311800000000    0.5625640900000000    0.4971311000000000 W
   0.1038667000000000    0.9266096200000000    0.5021534400000000 W
   0.4530678300000000    0.2438915900000000    0.4989637200000000 W
   0.4262130000000000    0.5829652300000000    0.5047283900000000 W
   0.4367615200000000    0.8841144000000000    0.4957666200000000 W
   0.7475733200000000    0.2395781700000000    0.5002407700000000 W
   0.7905509300000000    0.5746975700000000    0.4975222700000000 W
   0.7731036700000000    0.8967966000000001    0.5012791000000000 W
   0.2756827300000000    0.0711558400000000    0.6822770000000000 N
   0.2667456100000000    0.3983946900000000    0.6832794500000000 N
   0.2653173900000000    0.7437240700000000    0.6819927200000000 N
   0.6029007400000000    0.0711254000000000    0.6816686199999999 N
   0.6110315600000000    0.3999387500000000    0.6821955600000000 N
   0.6111843100000000    0.7433865400000000    0.6812906800000000 N
   0.9395137200000000    0.0709077200000000    0.7018524100000000 N
   0.9390212000000000    0.4072926400000000    0.6828162000000000 N
   0.9394021900000000    0.7346990700000000    0.6821405800000000 N
   0.2652007800000000    0.0713908100000000    0.3157345400000000 N
   0.2706413800000000    0.4021556900000000    0.3161858000000000 N
   0.2651112300000000    0.7325008600000000    0.3170685700000000 N
   0.6056497800000000    0.0719944000000000    0.3166546300000000 N
   0.5998099400000000    0.4024866600000000    0.3172111300000000 N
   0.6043239200000000    0.7320109000000000    0.3170311300000000 N
   0.9351559500000000    0.0672731900000000    0.3169019700000000 N
   0.9357010600000000    0.4025621500000000    0.3000368300000000 N
   0.9358324000000000    0.7374292099999999    0.3152252100000000 N
   0.2937599700000000    0.0703669800000000    0.4999310400000000 N
   0.2734074000000000    0.3994613200000000    0.5000914700000000 N
   0.2473406600000000    0.7423643400000000    0.4999769100000000 N
   0.5968810400000000    0.0556837300000000    0.4997659700000000 N
   0.6048569499999999    0.4294419100000000    0.4999382700000000 N
   0.6127148800000000    0.7237289600000000    0.4997800700000000 N
   0.9215631700000000    0.0820906100000000    0.4993890300000000 N
   0.9350345600000000    0.3840475300000000    0.4997391500000000 N
   0.9557957200000000    0.7474469000000000    0.4993492600000000 N
   0.4410857800000000    0.5736585700000000    0.7440350800000000 H
