H1 W18 N45
1.0
   8.7564020700000000    0.0000000000000000    0.2593228500000000
  -0.0034886100000000    8.6562110099999998    0.0416182200000000
   0.0000000000000000    0.0000000000000000   22.6308834700000006
W N H
18 45 1
direct
   0.1063463600000000    0.1036945000000000    0.6383105900000000 W
   0.1073045800000000    0.4362563100000000    0.6381446500000000 W
   0.1071458000000000    0.7720156100000000    0.6385045100000000 W
   0.4385497900000000    0.1032597500000000    0.6534408900000001 W
   0.4398156200000000    0.4367589500000000    0.6393174000000000 W
   0.4392632800000000    0.7711112200000000    0.6389726500000000 W
   0.7726207400000000    0.1039619000000000    0.6382903800000000 W
   0.7717952400000000    0.4359203900000000    0.6377248500000000 W
   0.7723851700000000    0.7721407500000000    0.6390897200000000 W
   0.1212193700000000    0.1010088800000000    0.4758128800000000 W
   0.1164320400000000    0.4397497600000000    0.4759341900000000 W
   0.1201334900000000    0.7715683300000000    0.4760609100000000 W
   0.4513645000000000    0.1052066300000000    0.4863810800000000 W
   0.4546163400000000    0.4348248300000000    0.4777531100000000 W
   0.4482800400000000    0.7735267500000000    0.4762366100000000 W
   0.7819704300000000    0.1075293400000000    0.4757899400000000 W
   0.7835637200000000    0.4362817700000000    0.4754795100000000 W
   0.7870467900000000    0.7683177200000000    0.4768639300000000 W
   0.1277019400000000    0.1029104900000000    0.3236850600000000 N
   0.1282605300000000    0.4376420000000000    0.3226186900000000 N
   0.1297577700000000    0.7705469800000000    0.3257224700000000 N
   0.4645434600000000    0.1010761400000000    0.3071464600000000 N
   0.4638786900000000    0.4409748400000000    0.3153935700000000 N
   0.4619875900000000    0.7692341900000000    0.3259019500000000 N
   0.7987035500000000    0.1041483700000000    0.3238616700000000 N
   0.7985829600000000    0.4366671700000000    0.3234052100000000 N
   0.7964189900000000    0.7713607800000000    0.3229683600000000 N
   0.1265531400000000    0.1019304400000000    0.3735335800000000 N
   0.1254239200000000    0.4383592500000000    0.3724844600000000 N
   0.1268709700000000    0.7713851100000000    0.3757401400000000 N
   0.4606558000000000    0.1033827300000000    0.3565838000000000 N
   0.4608027400000000    0.4369867900000000    0.3649653400000000 N
   0.4571458200000000    0.7715762900000001    0.3757342000000000 N
   0.7926582200000000    0.1046233300000000    0.3737269000000000 N
   0.7925614800000000    0.4373701800000000    0.3733644200000000 N
   0.7930819500000000    0.7700040400000000    0.3728136300000000 N
   0.1135879900000000    0.1028929500000000    0.5590990400000000 N
   0.1109537700000000    0.4385778700000000    0.5584751000000000 N
   0.1124479800000000    0.7706725200000000    0.5590549600000000 N
   0.4450880300000000    0.1045852500000000    0.5643095600000000 N
   0.4467181900000000    0.4361853100000000    0.5595827500000000 N
   0.4443321800000000    0.7715574200000000    0.5599194700000000 N
   0.7773875000000000    0.1052012900000000    0.5590640300000000 N
   0.7785431100000000    0.4372756100000000    0.5582126300000000 N
   0.7800906600000000    0.7691654900000000    0.5592267400000001 N
   0.2676759000000000    0.2735313700000000    0.6600690900000000 N
   0.2708160500000000    0.6035185300000000    0.6599245400000000 N
   0.2685206100000000    0.9351757800000000    0.6613016500000000 N
   0.6077415400000000    0.2729875500000000    0.6587205400000000 N
   0.6051447200000000    0.6037853000000000    0.6602368500000000 N
   0.6076360600000000    0.9343916000000000    0.6619188200000000 N
   0.9381315900000000    0.2706129200000000    0.6588428700000000 N
   0.9379105800000000    0.6038456400000000    0.6605339800000000 N
   0.9379124500000000    0.9371043900000000    0.6598105700000000 N
   0.2881027100000000    0.2711040700000000    0.4631826300000000 N
   0.2883860500000000    0.6007024800000000    0.4651003600000000 N
   0.2894871500000000    0.9415173600000000    0.4652965000000000 N
   0.6153263000000000    0.2689272000000000    0.4631537500000000 N
   0.6169140800000000    0.6057773600000000    0.4642014700000000 N
   0.6180775700000000    0.9381549200000000    0.4653084200000000 N
   0.9548004600000000    0.2694557100000000    0.4645908000000000 N
   0.9523138300000000    0.6045336400000000    0.4648090300000000 N
   0.9502224000000000    0.9388083300000000    0.4654529500000000 N
   0.4339467000000000    0.1173371000000000    0.7322656700000000 H
