H1 W18 N45
1.0
   8.7564020700000000    0.0000000000000000    0.2593228500000000
  -0.0034886100000000    8.6562110099999998    0.0416182200000000
   0.0000000000000000    0.0000000000000000   22.6308834700000006
W N H
18 45 1
direct
   0.1021451600000000    0.0984291200000000    0.6372237300000000 W
   0.1148964800000000    0.4331265700000000    0.6447503600000000 W
   0.1021209800000000    0.7679628400000000    0.6372157000000001 W
   0.4422354900000000    0.0987131000000000    0.6372264000000000 W
   0.4286796800000000    0.4331220000000000    0.6445379800000000 W
   0.4422442300000000    0.7677159700000000    0.6372254200000000 W
   0.7721105900000000    0.1012721500000000    0.6390124900000000 W
   0.7719325700000000    0.4331927200000000    0.6402500400000000 W
   0.7720902900000000    0.7651269600000000    0.6389936800000000 W
   0.1162823200000000    0.1036814900000000    0.4754278300000000 W
   0.1207195900000000    0.4349143700000000    0.4818910100000000 W
   0.1167292100000000    0.7672334900000000    0.4753973800000000 W
   0.4533933000000000    0.1029531900000000    0.4754119700000000 W
   0.4481295400000000    0.4355186600000000    0.4817471400000000 W
   0.4537233200000000    0.7672473400000001    0.4754394800000000 W
   0.7853129200000000    0.0989543400000000    0.4763706000000000 W
   0.7850527500000000    0.4352069000000000    0.4778292300000000 W
   0.7844861500000000    0.7715939600000000    0.4763469300000000 W
   0.1318911500000000    0.1032890300000000    0.3239427100000000 N
   0.1316378000000000    0.4373952400000000    0.3231025600000000 N
   0.1318469100000000    0.7714159700000000    0.3239321400000000 N
   0.4644835800000000    0.1034381500000000    0.3239384500000000 N
   0.4649914600000000    0.4373757000000000    0.3230746400000000 N
   0.4644379200000000    0.7713350300000000    0.3239546600000000 N
   0.7980668800000000    0.1041743500000000    0.3248052200000000 N
   0.7981095000000000    0.4373651000000000    0.3241429100000000 N
   0.7981400500000000    0.7705332300000000    0.3248123000000000 N
   0.1264196700000000    0.1045163500000000    0.3738277400000000 N
   0.1277840700000000    0.4366156100000000    0.3727863500000000 N
   0.1264761100000000    0.7688466800000000    0.3738127000000000 N
   0.4607141100000000    0.1042150400000000    0.3738242300000000 N
   0.4593816900000000    0.4367132400000000    0.3727541300000000 N
   0.4607796300000000    0.7690121800000000    0.3738439300000000 N
   0.7935650800000000    0.1023012500000000    0.3747052200000000 N
   0.7937250900000000    0.4366409900000000    0.3738940600000000 N
   0.7933614200000000    0.7709623100000000    0.3747131700000000 N
   0.1064841100000000    0.0983672700000000    0.5579475800000000 N
   0.1092493900000000    0.4340753400000000    0.5627607999999999 N
   0.1065386500000000    0.7701711800000000    0.5579332200000000 N
   0.4504096900000000    0.0981374400000000    0.5579344200000000 N
   0.4469024400000000    0.4342315400000000    0.5626819800000000 N
   0.4504570900000000    0.7702165100000000    0.5579409100000000 N
   0.7784264500000000    0.0994052400000000    0.5593547100000000 N
   0.7783701600000000    0.4341695100000000    0.5609038200000001 N
   0.7782390400000000    0.7689982200000000    0.5593423199999999 N
   0.2713086000000000    0.2514473700000000    0.6499131900000000 N
   0.2712686600000000    0.6146670000000000    0.6499145700000000 N
   0.2706671100000000    0.9329097700000000    0.6590118400000000 N
   0.6027366800000000    0.2669207900000000    0.6615513500000000 N
   0.6027363500000000    0.5988537600000000    0.6615334600000000 N
   0.6067713700000000    0.9329295100000000    0.6608003000000000 N
   0.9379625000000000    0.2669947100000000    0.6615337900000000 N
   0.9379586600000001    0.5987982200000000    0.6615425200000000 N
   0.9338762800000000    0.9328802100000000    0.6608715700000000 N
   0.2859781500000000    0.2681525500000000    0.4655907700000000 N
   0.2855754200000000    0.6026299400000000    0.4655868800000000 N
   0.2857381200000000    0.9354409800000000    0.4639425800000000 N
   0.6196832700000000    0.2717006600000000    0.4650030000000000 N
   0.6199080900000000    0.5988679300000000    0.4649823600000000 N
   0.6185098800000000    0.9356838600000000    0.4647496700000000 N
   0.9517731500000000    0.2718349400000000    0.4650074000000000 N
   0.9519703600000000    0.5992701700000000    0.4650385700000000 N
   0.9533596200000000    0.9351279700000000    0.4647920100000000 N
   0.2646021000000000    0.4320885700000000    0.7241329200000000 H
