H1 W45 N27
1.0
   8.8091896799999994    0.0000000000000000   -0.0322629300000000
  -0.0041149800000000    8.8105912800000006    0.0003707700000000
   0.0000000000000000    0.0000000000000000   23.8006870200000016
W N H
45 27 1
direct
   0.0981874300000000    0.2352770000000000    0.3321861700000000 W
   0.1111833100000000    0.5790023200000000    0.3309098300000000 W
   0.1079614400000000    0.8988718800000000    0.3297164900000000 W
   0.4426782700000000    0.2401875500000000    0.3322582600000000 W
   0.4317817800000000    0.5776335800000000    0.3300179400000000 W
   0.4285705000000000    0.8960745200000000    0.3308467000000000 W
   0.7709301700000000    0.2380924700000000    0.3303504000000000 W
   0.7683189499999999    0.5654795800000000    0.3324929300000000 W
   0.7744009300000000    0.9109772200000000    0.3325033200000000 W
   0.1136817500000000    0.2407969100000000    0.6698189400000000 W
   0.0986114500000000    0.5773772800000000    0.6674433100000000 W
   0.0982825500000000    0.9015353300000000    0.6664697200000000 W
   0.4331971500000000    0.2399266600000000    0.6677438400000000 W
   0.4523147100000000    0.5796349500000000    0.6670852500000000 W
   0.4509535500000000    0.9018241900000000    0.6674364900000000 W
   0.7752351700000000    0.2396076100000000    0.6659591100000000 W
   0.7745025600000000    0.5816351199999999    0.6705286800000000 W
   0.7744519399999999    0.9004284299999999    0.6708265200000000 W
   0.2741522500000000    0.0721814700000000    0.5879081800000000 W
   0.2747167000000000    0.4084574000000000    0.5886766300000000 W
   0.2734221600000000    0.7406901299999999    0.5875423500000000 W
   0.6065398800000000    0.0740627300000000    0.5879300400000000 W
   0.6056955200000000    0.4035371100000000    0.5885786500000000 W
   0.6083734600000000    0.7432041800000000    0.5858359300000000 W
   0.9399850500000000    0.0744430700000000    0.5879396000000000 W
   0.9398780500000000    0.4083892900000000    0.5883906500000000 W
   0.9398798700000000    0.7394676700000000    0.5860570899999999 W
   0.2724862500000000    0.0728251800000000    0.4100648900000000 W
   0.2716631700000000    0.4038905000000000    0.4108188700000000 W
   0.2718958700000000    0.7343023000000000    0.4130438000000000 W
   0.6023133200000000    0.0690366200000000    0.4109697900000000 W
   0.6061451400000000    0.4040562200000000    0.4111620500000000 W
   0.6070451800000000    0.7387517100000000    0.4112605700000000 W
   0.9398704000000000    0.0697564500000000    0.4109432000000000 W
   0.9390823500000000    0.4058873200000000    0.4114497500000000 W
   0.9369694100000000    0.7370558699999999    0.4115349300000000 W
   0.1077683600000000    0.2617490600000000    0.5034514500000000 W
   0.0998255000000000    0.5595510100000000    0.4985547100000000 W
   0.1165976300000000    0.8988281900000000    0.4979901500000000 W
   0.4369879200000000    0.2374110900000000    0.5029003399999999 W
   0.4615625000000000    0.5719088500000000    0.4983735600000000 W
   0.4184564300000000    0.9086867700000000    0.4987501700000000 W
   0.7730628000000000    0.2187042100000000    0.4947324700000000 W
   0.7588965300000000    0.5767561000000000    0.5007804900000000 W
   0.7819572000000000    0.9204904800000000    0.5017535200000000 W
   0.2758123400000000    0.0628115000000000    0.6794194200000000 N
   0.2775515100000000    0.4178622000000000    0.6801283500000000 N
   0.2747303100000000    0.7404579500000000    0.6802112800000000 N
   0.6096243099999999    0.0753197800000000    0.6827481500000000 N
   0.6093663100000000    0.4061178100000000    0.6822766400000000 N
   0.6095023700000000    0.7406177300000000    0.6978512500000000 N
   0.9387859100000000    0.0730051200000000    0.6812343700000000 N
   0.9378645300000000    0.4084008000000000    0.6817984800000000 N
   0.9409987300000000    0.7404500800000000    0.6970022200000000 N
   0.2719745200000000    0.0742500700000000    0.3161814100000000 N
   0.2688506200000000    0.4016229000000000    0.3171185600000000 N
   0.2693981600000000    0.7384251700000000    0.3006334700000000 N
   0.5995717200000000    0.0671770400000000    0.3169364300000000 N
   0.6010078900000000    0.4068801700000000    0.3141757100000000 N
   0.6068286200000000    0.7396718500000000    0.3178053300000000 N
   0.9396161300000000    0.0689073000000000    0.3126772800000000 N
   0.9411334900000000    0.4076878200000000    0.3165871400000000 N
   0.9339924400000000    0.7360376600000000    0.3168851400000000 N
   0.2579167100000000    0.0843838200000000    0.4986707300000000 N
   0.2866697800000000    0.4184598500000000    0.4993251200000000 N
   0.2757861300000000    0.7173446400000000    0.4991545600000000 N
   0.5945964300000000    0.0611687700000000    0.4995140400000000 N
   0.6156034600000000    0.3908869900000000    0.4993252500000000 N
   0.6055212500000000    0.7628327200000000    0.4995583600000000 N
   0.9632476900000000    0.0773642800000000    0.4988789000000000 N
   0.9177000000000000    0.4034677000000000    0.4996538000000000 N
   0.9373289000000000    0.7370435100000000    0.4997649000000000 N
   0.1218498900000000    0.2410295500000000    0.7429080000000000 H
