H1 W18 N27
1.0
   8.3378969099999996    0.0000000000000000   -0.6339652200000000
  -0.0216028500000000    8.3473862400000005   -0.3007192200000000
   0.0000000000000000    0.0000000000000000   19.4415438899999984
W N H
18 27 1
direct
   0.0062421900000000   -0.0007636700000000    0.5777011000000000 W
   0.0062469400000000    0.3368696300000000    0.5777076000000000 W
   0.0104990300000000    0.6681071100000000    0.5783326600000001 W
   0.3454655900000000   -0.0007764900000000    0.5775030100000000 W
   0.3454874400000000    0.3368493800000000    0.5775263700000000 W
   0.3414734500000000    0.6681080400000000    0.5783635400000000 W
   0.6751980900000000    0.0014954400000000    0.5783357600000000 W
   0.6751917400000000    0.3347456600000000    0.5783352700000000 W
   0.6749112400000000    0.6680740100000000    0.5778700100000000 W
   0.1474511200000000    0.1548430100000000    0.4195539700000000 W
   0.1477221400000000    0.4878295700000000    0.4207606900000000 W
   0.1477204300000000    0.8220429100000000    0.4207491300000000 W
   0.4811317300000000    0.1548214800000000    0.4192423000000000 W
   0.4810201900000000    0.4884794700000000    0.4195937000000000 W
   0.4810090100000000    0.8212058300000000    0.4195878700000000 W
   0.8139170000000000    0.1548315200000000    0.4194031900000000 W
   0.8140697900000000    0.4884212400000000    0.4196843000000000 W
   0.8140714200000000    0.8212874100000001    0.4196821500000000 W
   0.3071849300000000    0.3187469200000000    0.3822543500000000 N
   0.3070125100000000    0.6517317400000000    0.3824245200000000 N
   0.3071894900000000    0.9846814300000000    0.3822489000000000 N
   0.6408328400000000    0.3184551400000000    0.3811759400000000 N
   0.6408091400000000    0.6516805100000000    0.3818452000000000 N
   0.6408408600000000    0.9847881000000001    0.3811674900000000 N
   0.9745266100000000    0.3186754900000000    0.3822373800000000 N
   0.9748253700000000    0.6517140700000000    0.3823062400000000 N
   0.9745272699999999    0.9847455700000000    0.3822311800000000 N
   0.1837141500000000    0.1717133200000000    0.6218699300000000 N
   0.1828773900000000    0.5033995700000000    0.6172658500000000 N
   0.1828882900000000    0.8393418000000000    0.6172594300000001 N
   0.5135960100000000    0.1713364500000000    0.6170247700000000 N
   0.5159793499999999    0.5048905500000000    0.6167288200000000 N
   0.5159750100000000    0.8377622100000000    0.6167202200000000 N
   0.8509448100000000    0.1713278500000000    0.6168195000000000 N
   0.8485542100000000    0.5048465500000000    0.6161113900000000 N
   0.8485544600000000    0.8376953200000000    0.6161132000000000 N
   0.1614148500000000    0.3257002400000000    0.4999754500000000 N
   0.1613845400000000    0.6615327800000000    0.4994606300000000 N
   0.1614043600000000   -0.0025784700000000    0.4999665800000000 N
   0.4971392000000000    0.3276146900000000    0.4986374700000000 N
   0.4954710100000000    0.6615105999999999    0.4990882200000000 N
   0.4971530700000000    0.9953137600000000    0.4986349200000000 N
   0.8265698100000000    0.3276257600000000    0.4987773800000000 N
   0.8281459900000000    0.6615129199999999    0.4991139200000000 N
   0.8265654900000000    0.9953319000000000    0.4987751300000000 N
   0.1940480800000000    0.1759801600000000    0.6748787400000000 H
