H1 W18 N27
1.0
   8.3378969099999996    0.0000000000000000   -0.6339652200000000
  -0.0216028500000000    8.3473862400000005   -0.3007192200000000
   0.0000000000000000    0.0000000000000000   19.4415438899999984
W N H
18 27 1
direct
   0.0045963400000000    0.0011863800000000    0.5777795500000000 W
   0.0046039300000000    0.3391337400000000    0.5779179100000000 W
   0.0089395700000000    0.6702475400000000    0.5786202499999999 W
   0.3435646600000000    0.0013319900000000    0.5777662200000000 W
   0.3434954500000000    0.3391546900000000    0.5779097000000000 W
   0.3395923100000000    0.6702042000000000    0.5786088800000000 W
   0.6736902100000000    0.0034752500000000    0.5784083300000000 W
   0.6736585400000000    0.3369513900000000    0.5784857300000000 W
   0.6735387600000000    0.6701293400000000    0.5778705300000000 W
   0.1457427900000000    0.1563719000000000    0.4198363200000000 W
   0.1459148900000000    0.4894906200000000    0.4208807100000000 W
   0.1460060200000000    0.8234309000000000    0.4208611100000000 W
   0.4792548100000000    0.1564276700000000    0.4195370100000000 W
   0.4792218000000000    0.4900525800000000    0.4197400500000000 W
   0.4792571700000000    0.8228589800000000    0.4197569600000000 W
   0.8121686100000000    0.1565169000000000    0.4196598500000000 W
   0.8123553400000000    0.4901056500000000    0.4199075400000000 W
   0.8123371600000000    0.8228919400000000    0.4197972500000000 W
   0.3054258200000000    0.3201959700000000    0.3826010700000000 N
   0.3051969500000000    0.6532008100000000    0.3824005200000000 N
   0.3054048500000000    0.9862570100000000    0.3824491000000000 N
   0.6389781000000000    0.3201146400000000    0.3814535600000000 N
   0.6391457600000000    0.6532983999999999    0.3820460800000000 N
   0.6390420700000000    0.9864751899999999    0.3814094000000000 N
   0.9727123700000000    0.3202823200000000    0.3825274600000000 N
   0.9731179599999999    0.6532609000000000    0.3824586800000000 N
   0.9728004600000000    0.9863625000000000    0.3824361100000000 N
   0.1819650900000000    0.1739032700000000    0.6221353600000000 N
   0.1810723100000000    0.5056932600000000    0.6178142500000000 N
   0.1811452300000000    0.8417204200000000    0.6177125999999999 N
   0.5119112300000001    0.1734439200000000    0.6171352700000000 N
   0.5142586600000000    0.5072163000000000    0.6167196900000000 N
   0.5141985900000000    0.8399232200000000    0.6165991900000000 N
   0.8493397100000000    0.1734278200000000    0.6167921600000000 N
   0.8470301900000000    0.5071092000000000    0.6162877800000000 N
   0.8470865100000000    0.8399548500000000    0.6162334600000000 N
   0.1598857600000000    0.3276014000000000    0.5001782000000000 N
   0.1600523600000000    0.6630769000000000    0.4996646100000000 N
   0.1599863200000000   -0.0011813100000000    0.5000584200000000 N
   0.4950816500000000    0.3294220400000000    0.4988819700000000 N
   0.4935052900000000    0.6632428600000000    0.4991795800000000 N
   0.4951594700000000    0.9969971800000000    0.4988373900000000 N
   0.8246603300000001    0.3295495100000000    0.4989749900000000 N
   0.8267184100000000    0.6634190000000000    0.4992490700000000 N
   0.8247203200000000    0.9968360800000000    0.4988897900000000 N
   0.1923441600000000    0.1777015700000000    0.6749757700000000 H
