H1 W27 N36
1.0
   8.5378185000000002    0.0000000000000000    0.0314463900000000
  -4.2205377899999998    7.7357082300000002   -0.6490793700000000
   0.0000000000000000    0.0000000000000000   22.9756335599999986
W N H
27 36 1
direct
   0.0910493400000000    0.0062697600000000    0.3739392800000000 W
   0.0914969900000000    0.3403792000000000    0.3737007300000000 W
   0.0913768400000000    0.6739931400000000    0.3747339800000000 W
   0.4238511000000000    0.0069022700000000    0.3737864500000000 W
   0.4236528300000000    0.3392569700000000    0.3733277300000000 W
   0.4238138900000000    0.6722666000000000    0.3725262200000000 W
   0.7572622700000000    0.0055140200000000    0.3728311700000000 W
   0.7576534900000000    0.3406643100000000    0.3741381500000000 W
   0.7570916800000000    0.6722432699999999    0.3726659600000000 W
   0.1250513700000000    0.0984154000000000    0.6280743700000000 W
   0.1248611100000000    0.3937008800000000    0.6242528100000000 W
   0.1238597100000000    0.7427079100000000    0.6354441900000000 W
   0.4761570300000000    0.0946436600000000    0.6260892900000000 W
   0.4589394000000000    0.4226625300000000    0.6279684900000000 W
   0.4804196600000000    0.7563016200000000    0.6250407000000000 W
   0.7924223300000000    0.0842759700000000    0.6219372100000000 W
   0.7732511300000000    0.3895541000000000    0.6261211500000000 W
   0.7824992800000000    0.7615663100000000    0.6265682900000000 W
   0.1047093400000000    0.0359232600000000    0.5006947899999999 W
   0.1126466500000000    0.3857663700000000    0.5002895700000000 W
   0.1067170400000000    0.7090831399999999    0.5036231100000000 W
   0.4346995500000000    0.0377665400000000    0.5006757600000000 W
   0.4411746700000000    0.3775359100000000    0.5006393099999999 W
   0.4403026100000000    0.7098238200000000    0.4993500500000000 W
   0.7743691700000001    0.0427835300000000    0.4984799500000000 W
   0.7801561800000000    0.3891370300000000    0.5009735199999999 W
   0.7729892600000000    0.7065574500000000    0.4997526200000000 W
   0.2484655400000000    0.3051410400000000    0.6798186899999999 N
   0.2419233200000000    0.6368341700000000    0.6685184700000000 N
   0.2379663700000000    0.9718861900000000    0.6677499800000000 N
   0.5663400100000000    0.3091813300000000    0.6822323500000000 N
   0.5746094300000000    0.6340957200000000    0.6776421300000000 N
   0.5655851500000000    0.9744549500000000    0.6735230200000000 N
   0.9116183200000000    0.3185814200000000    0.6739858100000000 N
   0.8985406300000000    0.6351030800000000    0.6675561200000000 N
   0.9129130400000000    0.9750613299999999    0.6740412300000000 N
   0.1923620000000000    0.2109122300000000    0.3246319300000000 N
   0.1934489700000000    0.5447083300000000    0.3247970500000000 N
   0.1940345000000000    0.8775397300000000    0.3248709300000000 N
   0.5289721200000000    0.2115740700000000    0.3248883100000000 N
   0.5266747300000000    0.5437599000000000    0.3236152300000000 N
   0.5277410900000000    0.8779898200000000    0.3242550800000000 N
   0.8606407300000000    0.2116730800000000    0.3254996000000000 N
   0.8612277300000000    0.5443677300000000    0.3249192900000000 N
   0.8597423100000000    0.8773518500000000    0.3241236100000000 N
   0.0055864300000000    0.1735244100000000    0.5599994200000000 N
   0.0031199700000000    0.5039611000000001    0.5635183800000000 N
   0.0018295500000000    0.8383781900000000    0.5626781100000000 N
   0.3346701200000000    0.1708427600000000    0.5613729400000000 N
   0.3428337100000000    0.5130420900000000    0.5624879900000000 N
   0.3418987000000000    0.8425937100000001    0.5630779800000000 N
   0.6743550200000000    0.1744433600000000    0.5588502600000000 N
   0.6702945100000000    0.5091903500000000    0.5627314800000000 N
   0.6767225300000000    0.8483062400000000    0.5604494100000000 N
   0.2105140900000000    0.2488115000000000    0.4380683600000000 N
   0.2131178400000000    0.5835496900000000    0.4381918400000000 N
   0.2106866000000000    0.9136168900000000    0.4377497600000000 N
   0.5452474899999999    0.2498869700000000    0.4385142300000000 N
   0.5434638700000000    0.5802360100000000    0.4364284400000000 N
   0.5441650700000000    0.9154172900000001    0.4373848100000000 N
   0.8807423400000000    0.2539969300000000    0.4395757000000000 N
   0.8792764800000000    0.5841735600000000    0.4382363500000000 N
   0.8767777000000000    0.9133217000000000    0.4371592700000000 N
   0.5650341600000000    0.3225783500000000    0.7266686900000000 H
