H1 W27 N36
1.0
   8.5378185000000002    0.0000000000000000    0.0314463900000000
  -4.2205377899999998    7.7357082300000002   -0.6490793700000000
   0.0000000000000000    0.0000000000000000   22.9756335599999986
W N H
27 36 1
direct
   0.0922724000000000    0.0031776800000000    0.3728491800000000 W
   0.0925443700000000    0.3360384200000000    0.3724217300000000 W
   0.0918319000000000    0.6707867300000000    0.3739551300000000 W
   0.4263433300000000    0.0048461800000000    0.3742049400000000 W
   0.4255131500000000    0.3362326300000000    0.3728110100000000 W
   0.4257324200000000    0.6702829100000000    0.3732863200000000 W
   0.7595531900000000    0.0039068000000000    0.3733419200000000 W
   0.7598641300000000    0.3383939300000000    0.3742896100000000 W
   0.7593490600000000    0.6704800000000000    0.3740982900000000 W
   0.1217624100000000    0.0903819700000000    0.6262436900000000 W
   0.1406525300000000    0.4091273700000000    0.6231128000000000 W
   0.1478202600000000    0.7657146600000000    0.6283073300000001 W
   0.4430712900000000    0.0543029200000000    0.6266832400000000 W
   0.4475739400000000    0.4213181700000000    0.6253086600000000 W
   0.4575561700000000    0.7524857200000000    0.6239564300000000 W
   0.8058425600000000    0.0759243800000000    0.6232838700000000 W
   0.7904112800000000    0.4131433500000000    0.6352323400000000 W
   0.7951238100000000    0.7694847100000000    0.6314453799999999 W
   0.1080633200000000    0.0371943800000000    0.5001573600000000 W
   0.1120508800000000    0.3792050300000000    0.4988111200000000 W
   0.1020649000000000    0.7040869400000000    0.5009707500000000 W
   0.4500593000000000    0.0531274200000000    0.5011571000000000 W
   0.4446291800000000    0.3706976200000000    0.4999037200000000 W
   0.4412640600000000    0.7052190200000000    0.4988845300000000 W
   0.7785137300000000    0.0462172900000000    0.4997146100000000 W
   0.7760585000000000    0.3723311900000000    0.5027853300000000 W
   0.7750163200000000    0.7031660300000000    0.5014080600000000 W
   0.2414248500000000    0.3040695100000000    0.6819732400000000 N
   0.2320562900000000    0.6335243200000000    0.6716769000000000 N
   0.2335094000000000    0.9793642400000000    0.6780504900000000 N
   0.5668117600000000    0.3007954900000000    0.6677972100000000 N
   0.5751595100000000    0.6359469800000001    0.6728533500000000 N
   0.5857775800000000    0.9828686700000000    0.6722013500000000 N
   0.9087304600000000    0.3080627000000000    0.6702171400000000 N
   0.9048423700000000    0.6395630000000000    0.6688043000000000 N
   0.9140847800000000    0.9737245300000000    0.6813074800000000 N
   0.1947564000000000    0.2071932600000000    0.3234807100000000 N
   0.1954435300000000    0.5420310400000000    0.3245804200000000 N
   0.1973154100000000    0.8756596200000000    0.3249433100000000 N
   0.5295078400000000    0.2086889600000000    0.3246957300000000 N
   0.5275533000000000    0.5417221600000000    0.3245751500000000 N
   0.5286724300000000    0.8753857900000001    0.3251737400000000 N
   0.8623167200000000    0.2084703700000000    0.3246787000000000 N
   0.8619928200000000    0.5417340400000000    0.3245860500000000 N
   0.8613494500000000    0.8752233400000000    0.3244137300000000 N
   0.0084446900000000    0.1796414100000000    0.5590583400000000 N
   0.0094713500000000    0.5041085700000000    0.5619544500000000 N
   0.0032923200000000    0.8373446700000000    0.5646329800000000 N
   0.3385021600000000    0.1717281600000000    0.5624222900000000 N
   0.3465458500000000    0.5151277200000000    0.5606312100000000 N
   0.3374557800000000    0.8375069700000000    0.5596433700000000 N
   0.6752729700000000    0.1729836200000000    0.5631968600000000 N
   0.6705821199999999    0.5017648300000001    0.5623767000000000 N
   0.6741306000000000    0.8389043700000000    0.5615390600000000 N
   0.2124794900000000    0.2437433200000000    0.4367103100000000 N
   0.2119921200000000    0.5817565200000000    0.4379275400000000 N
   0.2149100100000000    0.9146424700000000    0.4385321900000000 N
   0.5477638900000000    0.2480490800000000    0.4378335400000000 N
   0.5458385900000000    0.5782020500000000    0.4378807600000000 N
   0.5477870300000000    0.9165318600000000    0.4388411500000000 N
   0.8825312100000000    0.2473660700000000    0.4382678600000000 N
   0.8782368300000000    0.5790605200000000    0.4371178600000000 N
   0.8789966500000000    0.9126194000000000    0.4377165800000000 N
   0.2473169200000000    0.3122878800000000    0.7265206300000000 H
