H1 W27 N36
1.0
   8.5378185000000002    0.0000000000000000    0.0314463900000000
  -4.2205377899999998    7.7357082300000002   -0.6490793700000000
   0.0000000000000000    0.0000000000000000   22.9756335599999986
W N H
27 36 1
direct
   0.0926022400000000    0.0045899200000000    0.3747132400000000 W
   0.0926333500000000    0.3386788900000000    0.3733716900000000 W
   0.0921158200000000    0.6712895400000000    0.3743944600000000 W
   0.4258893400000000    0.0042312900000000    0.3741091000000000 W
   0.4245978200000000    0.3368245100000000    0.3723679000000000 W
   0.4253868300000000    0.6709045000000000    0.3735713600000000 W
   0.7596384600000000    0.0045695300000000    0.3753588800000000 W
   0.7597235100000000    0.3377273200000000    0.3736691200000000 W
   0.7590336200000000    0.6710712200000000    0.3737915200000000 W
   0.1453652100000000    0.1130386000000000    0.6295994400000000 W
   0.1322275500000000    0.4231585400000000    0.6294705300000000 W
   0.1390722100000000    0.7605514799999999    0.6285818399999999 W
   0.4715577000000000    0.1043601500000000    0.6286515400000000 W
   0.4566878700000000    0.4130218900000000    0.6201236000000000 W
   0.4652910100000000    0.7576073400000000    0.6271409500000000 W
   0.7937480099999999    0.0878059000000000    0.6259921899999999 W
   0.7737252800000000    0.4051021400000000    0.6283259400000000 W
   0.7780090600000000    0.7469204300000000    0.6301805100000000 W
   0.1160806700000000    0.0494171500000000    0.5015946100000001 W
   0.1107666700000000    0.3785879500000000    0.5004151700000000 W
   0.1056334100000000    0.7022881200000000    0.5011654200000000 W
   0.4495055600000000    0.0485966400000000    0.5013968100000000 W
   0.4467346400000000    0.3834240200000000    0.4986230200000000 W
   0.4355379300000000    0.7016847500000000    0.5000225100000000 W
   0.7815601300000000    0.0458913100000000    0.5017975500000000 W
   0.7817720400000000    0.3811961000000000    0.5007515299999999 W
   0.7753131700000000    0.7032971200000000    0.5010817400000001 W
   0.2472285900000000    0.3187647300000000    0.6806488900000000 N
   0.2411163100000000    0.6420123000000000    0.6745991000000000 N
   0.2345004000000000    0.9743256900000000    0.6732265500000000 N
   0.5684046900000000    0.3189065400000000    0.6852716400000000 N
   0.5718518299999999    0.6391777700000000    0.6759049400000000 N
   0.5708737000000000    0.9767624800000000    0.6734476400000000 N
   0.9105541500000000    0.3104969700000000    0.6733878200000000 N
   0.9109003300000000    0.6423641900000000    0.6687443700000000 N
   0.9155438900000000    0.9724888000000000    0.6695380300000000 N
   0.1952545700000000    0.2078629000000000    0.3240063100000000 N
   0.1965308600000000    0.5423839800000000    0.3238281900000000 N
   0.1956354300000000    0.8754942300000000    0.3245293200000000 N
   0.5291546400000000    0.2086014700000000    0.3239331400000000 N
   0.5300816000000000    0.5420559700000001    0.3239294100000000 N
   0.5297148100000000    0.8762997200000000    0.3248264900000000 N
   0.8615377300000000    0.2078965900000000    0.3243484700000000 N
   0.8611349600000000    0.5420853500000000    0.3244720500000000 N
   0.8630279300000000    0.8766713400000000    0.3252923400000000 N
   0.0098727300000000    0.1730934900000000    0.5638635600000000 N
   0.0108385300000000    0.5090529800000000    0.5647916600000000 N
   0.0090699100000000    0.8379494100000000    0.5605160300000001 N
   0.3417181700000000    0.1759047800000000    0.5637222200000001 N
   0.3404843400000000    0.5090391100000000    0.5629004600000000 N
   0.3382810700000000    0.8402166700000000    0.5627113300000000 N
   0.6760779600000000    0.1771885600000000    0.5638506700000000 N
   0.6787807100000000    0.5131508800000000    0.5637043200000000 N
   0.6730475700000000    0.8400031400000000    0.5614257600000000 N
   0.2135297900000000    0.2493718300000000    0.4371846600000000 N
   0.2117369700000000    0.5793916900000000    0.4362418500000000 N
   0.2146191800000000    0.9151804200000000    0.4383834600000000 N
   0.5468594600000000    0.2495432800000000    0.4377797900000000 N
   0.5434362100000000    0.5793981700000000    0.4370151700000000 N
   0.5465143200000000    0.9137955000000000    0.4393233200000000 N
   0.8795765200000000    0.2488183300000000    0.4380901800000000 N
   0.8781195400000000    0.5804830100000000    0.4376027900000000 N
   0.8818530999999999    0.9146811600000000    0.4398243200000000 N
   0.4816115400000000    0.3801433600000000    0.7035000800000000 H
