W  N  H                                 
   1.0000000000000000     
     8.8666231500000006    0.0000000000000000   -0.0028193100000000
    -4.4188929300000002    7.6922702100000002    0.0003114900000000
     0.0000000000000000    0.0000000000000000   21.1017816499999995
  W               N               H             
    18    36     1
Direct
  0.1277285005792920  0.0086363895944649  0.5947455962221583
  0.1234084815233296  0.3389521205436793  0.5932373731036199
  0.1278965994310983  0.6739533820957396  0.5946350256057885
  0.4612815433706856  0.0084494861184148  0.5938601328034147
  0.4623462654696406  0.3392404951363341  0.5933011461474106
  0.4624974892104088  0.6779982097436940  0.5933156945423664
  0.7933828280575727  0.0080613636240308  0.5938657185489737
  0.7933608849377384  0.3404133795489286  0.5939094393057498
  0.7927650067548305  0.6737901052082802  0.5946981563682432
  0.1270055012612183  0.0076825382600202  0.4054478845918424
  0.1274156796054855  0.3416107079992565  0.4057980274837225
  0.1268894053501584  0.6752149800533955  0.4056091573003555
  0.4600404870658810  0.0077950686596993  0.4050428349542016
  0.4604152774295209  0.3416358482335167  0.4054448860911972
  0.4603606550533642  0.6749115499158740  0.4059151901115469
  0.7941049087790831  0.0082041365588089  0.4052075658475837
  0.7940991306671792  0.3418320832447763  0.4048092652160200
  0.7942558738270150  0.6752740961815750  0.4053998617926201
  0.0157145142876302  0.1189551122133914  0.4665135964945005
  0.0155597685608446  0.4524534949334080  0.4664662355623419
  0.0160445417816556  0.7860233918807565  0.4669719315066373
  0.3495974565573402  0.1191290348182441  0.4663997333960193
  0.3494939209634568  0.4526186550552857  0.4678271085522131
  0.3494426046174648  0.7864592855581787  0.4665688636279989
  0.6826973615757774  0.1194592860989602  0.4661440344426486
  0.6829953007889956  0.4525148714199325  0.4663465883222673
  0.6830535227498540  0.7864164673745982  0.4665442604153208
  0.0153284716442353  0.1184579528931010  0.5328829152600366
  0.0153292455683529  0.4519632526744579  0.5328423624377799
  0.0159986446218697  0.7856844596809571  0.5334513115952448
  0.3495795930077000  0.1187433149038060  0.5328000328642926
  0.3493315940303725  0.4521084945375249  0.5349563817280081
  0.3497351522072235  0.7864026556862532  0.5329222516988860
  0.6826808154588745  0.1191438836404513  0.5325526702489428
  0.6829460588263944  0.4520677684040081  0.5327607750274928
  0.6830927979943995  0.7862919894619901  0.5329042624432472
  0.0165212825548446  0.1207865105698229  0.3554924697380141
  0.0166711356678533  0.4532951365717500  0.3554530799188977
  0.0162487188872032  0.7867398788383110  0.3552862956003194
  0.3500441307499351  0.1207559517535557  0.3553480807151616
  0.3496395530236563  0.4537657023590776  0.3561888469300237
  0.3497800149670247  0.7864421778875638  0.3554889225678007
  0.6828533151883838  0.1201395718322206  0.3550898171072013
  0.6824114160357364  0.4532885275046078  0.3552860895462742
  0.6822496749980106  0.7866568220453646  0.3555365741546490
  0.0170257951901875  0.1194562796759141  0.6445312166923129
  0.0172783417586531  0.4528074231093565  0.6444508820926582
  0.0157891391584418  0.7854274544685078  0.6439744664219764
  0.3485992187153608  0.1196095231712088  0.6445501170790549
  0.3490711823222418  0.4519239301235989  0.6487748682380414
  0.3487194611410868  0.7842373625072541  0.6444710023949453
  0.6824522073260704  0.1189150292935010  0.6439682122195532
  0.6817935626319699  0.4528591138349502  0.6445251682400567
  0.6817471862735556  0.7841760368993858  0.6445197721393389
  0.3485356097938302  0.4514078555982253  0.6971707265430620

  0.00000000E+00  0.00000000E+00  0.00000000E+00
  0.00000000E+00  0.00000000E+00  0.00000000E+00
  0.00000000E+00  0.00000000E+00  0.00000000E+00
  0.00000000E+00  0.00000000E+00  0.00000000E+00
  0.00000000E+00  0.00000000E+00  0.00000000E+00
  0.00000000E+00  0.00000000E+00  0.00000000E+00
  0.00000000E+00  0.00000000E+00  0.00000000E+00
  0.00000000E+00  0.00000000E+00  0.00000000E+00
  0.00000000E+00  0.00000000E+00  0.00000000E+00
  0.00000000E+00  0.00000000E+00  0.00000000E+00
  0.00000000E+00  0.00000000E+00  0.00000000E+00
  0.00000000E+00  0.00000000E+00  0.00000000E+00
  0.00000000E+00  0.00000000E+00  0.00000000E+00
  0.00000000E+00  0.00000000E+00  0.00000000E+00
  0.00000000E+00  0.00000000E+00  0.00000000E+00
  0.00000000E+00  0.00000000E+00  0.00000000E+00
  0.00000000E+00  0.00000000E+00  0.00000000E+00
  0.00000000E+00  0.00000000E+00  0.00000000E+00
  0.00000000E+00  0.00000000E+00  0.00000000E+00
  0.00000000E+00  0.00000000E+00  0.00000000E+00
  0.00000000E+00  0.00000000E+00  0.00000000E+00
  0.00000000E+00  0.00000000E+00  0.00000000E+00
  0.00000000E+00  0.00000000E+00  0.00000000E+00
  0.00000000E+00  0.00000000E+00  0.00000000E+00
  0.00000000E+00  0.00000000E+00  0.00000000E+00
  0.00000000E+00  0.00000000E+00  0.00000000E+00
  0.00000000E+00  0.00000000E+00  0.00000000E+00
  0.00000000E+00  0.00000000E+00  0.00000000E+00
  0.00000000E+00  0.00000000E+00  0.00000000E+00
  0.00000000E+00  0.00000000E+00  0.00000000E+00
  0.00000000E+00  0.00000000E+00  0.00000000E+00
  0.00000000E+00  0.00000000E+00  0.00000000E+00
  0.00000000E+00  0.00000000E+00  0.00000000E+00
  0.00000000E+00  0.00000000E+00  0.00000000E+00
  0.00000000E+00  0.00000000E+00  0.00000000E+00
  0.00000000E+00  0.00000000E+00  0.00000000E+00
  0.00000000E+00  0.00000000E+00  0.00000000E+00
  0.00000000E+00  0.00000000E+00  0.00000000E+00
  0.00000000E+00  0.00000000E+00  0.00000000E+00
  0.00000000E+00  0.00000000E+00  0.00000000E+00
  0.00000000E+00  0.00000000E+00  0.00000000E+00
  0.00000000E+00  0.00000000E+00  0.00000000E+00
  0.00000000E+00  0.00000000E+00  0.00000000E+00
  0.00000000E+00  0.00000000E+00  0.00000000E+00
  0.00000000E+00  0.00000000E+00  0.00000000E+00
  0.00000000E+00  0.00000000E+00  0.00000000E+00
  0.00000000E+00  0.00000000E+00  0.00000000E+00
  0.00000000E+00  0.00000000E+00  0.00000000E+00
  0.00000000E+00  0.00000000E+00  0.00000000E+00
  0.00000000E+00  0.00000000E+00  0.00000000E+00
  0.00000000E+00  0.00000000E+00  0.00000000E+00
  0.00000000E+00  0.00000000E+00  0.00000000E+00
  0.00000000E+00  0.00000000E+00  0.00000000E+00
  0.00000000E+00  0.00000000E+00  0.00000000E+00
  0.00000000E+00  0.00000000E+00  0.00000000E+00
