W  N  H                                 
   1.0000000000000000     
     8.3378969099999996    0.0000000000000000   -0.6339652200000000
    -0.0216028500000000    8.3473862400000005   -0.3007192200000000
     0.0000000000000000    0.0000000000000000   19.4415438899999984
  W               N               H             
    18    27     1
Direct
  0.0018718000647856  0.9989442899502802  0.5777132463665725
  0.0017970383349891  0.3365694708081572  0.5776959904104340
  0.0054864913335318  0.6680134612925878  0.5786598291347567
  0.3422568050736399  0.9991214191313481  0.5778096629227635
  0.3421864394820791  0.3366569007229573  0.5779098305119659
  0.3385440980581009  0.6679699338473284  0.5786822375471128
  0.6720768060227675  0.0014971738295129  0.5785786328358223
  0.6719981102008754  0.3345367957810449  0.5785401729290327
  0.6719447892598355  0.6677981591620663  0.5779053590208296
  0.1443941107469380  0.1552304019786132  0.4207738497321771
  0.1445532559204854  0.4881084927906760  0.4221857211731947
  0.1445896956575448  0.8223503131182327  0.4221787112052234
  0.4780814783255206  0.1550284130751481  0.4202118387319330
  0.4778015330242543  0.4887314613499629  0.4207613702694479
  0.4778792272863134  0.8217338829569601  0.4207407809716891
  0.8104366068090246  0.1551910951923278  0.4201784558955198
  0.8108289862590370  0.4888146019786435  0.4207626934971011
  0.8108997491074988  0.8218159346561508  0.4207555088832295
  0.3040126074305580  0.3191209916182116  0.3836455938741235
  0.3035159164239313  0.6519748155056087  0.3838348636432869
  0.3039937792595532  0.9848834907148110  0.3836058072432866
  0.6375280899963329  0.3188787055415353  0.3824662052111745
  0.6377110450328329  0.6520289288057916  0.3831223898647168
  0.6376100891589578  0.9849564574555260  0.3824195947042999
  0.9715321125004129  0.3192049894481402  0.3836489860517932
  0.9720850287527075  0.6520225912832938  0.3838422198945748
  0.9715977011309467  0.9849315919888525  0.3836340675018347
  0.1796864289610142  0.1714037961467074  0.6217044297991776
  0.1786651503948589  0.5030234908381775  0.6164684612259055
  0.1788038529725305  0.8391271906326067  0.6164881187638213
  0.5106122831469615  0.1711430831581269  0.6167927989472435
  0.5127665644166155  0.5046781585086164  0.6164028302992454
  0.5128966826543487  0.8374608705135689  0.6163983891355970
  0.8471654673071551  0.1711205792878896  0.6166814349729678
  0.8447090184188017  0.5046232413382702  0.6163529443139677
  0.8446243859194090  0.8375255021376644  0.6163670257729510
  0.1584762320831240  0.3250355021359113  0.5006889225452359
  0.1582860868463289  0.6616757474559372  0.5003178554992488
  0.1585339925699713  0.9982370090332054  0.5006738096848254
  0.4932338534804240  0.3276316220662146  0.4992674600587622
  0.4913276665863532  0.6616382373104345  0.4997165511542894
  0.4933701679517167  0.9954705226891287  0.4992454261467311
  0.8228697324703103  0.3276960911931326  0.4992231696181241
  0.8249645107858921  0.6616908376195592  0.4997120295052767
  0.8229202901757642  0.9955603627468625  0.4992265071356962
  0.1888215322049694  0.1758620312042019  0.6746951553930512

  0.00000000E+00  0.00000000E+00  0.00000000E+00
  0.00000000E+00  0.00000000E+00  0.00000000E+00
  0.00000000E+00  0.00000000E+00  0.00000000E+00
  0.00000000E+00  0.00000000E+00  0.00000000E+00
  0.00000000E+00  0.00000000E+00  0.00000000E+00
  0.00000000E+00  0.00000000E+00  0.00000000E+00
  0.00000000E+00  0.00000000E+00  0.00000000E+00
  0.00000000E+00  0.00000000E+00  0.00000000E+00
  0.00000000E+00  0.00000000E+00  0.00000000E+00
  0.00000000E+00  0.00000000E+00  0.00000000E+00
  0.00000000E+00  0.00000000E+00  0.00000000E+00
  0.00000000E+00  0.00000000E+00  0.00000000E+00
  0.00000000E+00  0.00000000E+00  0.00000000E+00
  0.00000000E+00  0.00000000E+00  0.00000000E+00
  0.00000000E+00  0.00000000E+00  0.00000000E+00
  0.00000000E+00  0.00000000E+00  0.00000000E+00
  0.00000000E+00  0.00000000E+00  0.00000000E+00
  0.00000000E+00  0.00000000E+00  0.00000000E+00
  0.00000000E+00  0.00000000E+00  0.00000000E+00
  0.00000000E+00  0.00000000E+00  0.00000000E+00
  0.00000000E+00  0.00000000E+00  0.00000000E+00
  0.00000000E+00  0.00000000E+00  0.00000000E+00
  0.00000000E+00  0.00000000E+00  0.00000000E+00
  0.00000000E+00  0.00000000E+00  0.00000000E+00
  0.00000000E+00  0.00000000E+00  0.00000000E+00
  0.00000000E+00  0.00000000E+00  0.00000000E+00
  0.00000000E+00  0.00000000E+00  0.00000000E+00
  0.00000000E+00  0.00000000E+00  0.00000000E+00
  0.00000000E+00  0.00000000E+00  0.00000000E+00
  0.00000000E+00  0.00000000E+00  0.00000000E+00
  0.00000000E+00  0.00000000E+00  0.00000000E+00
  0.00000000E+00  0.00000000E+00  0.00000000E+00
  0.00000000E+00  0.00000000E+00  0.00000000E+00
  0.00000000E+00  0.00000000E+00  0.00000000E+00
  0.00000000E+00  0.00000000E+00  0.00000000E+00
  0.00000000E+00  0.00000000E+00  0.00000000E+00
  0.00000000E+00  0.00000000E+00  0.00000000E+00
  0.00000000E+00  0.00000000E+00  0.00000000E+00
  0.00000000E+00  0.00000000E+00  0.00000000E+00
  0.00000000E+00  0.00000000E+00  0.00000000E+00
  0.00000000E+00  0.00000000E+00  0.00000000E+00
  0.00000000E+00  0.00000000E+00  0.00000000E+00
  0.00000000E+00  0.00000000E+00  0.00000000E+00
  0.00000000E+00  0.00000000E+00  0.00000000E+00
  0.00000000E+00  0.00000000E+00  0.00000000E+00
  0.00000000E+00  0.00000000E+00  0.00000000E+00
