W  N  H                                 
   1.0000000000000000     
     8.5378185000000002    0.0000000000000000    0.0314463900000000
    -4.2205377899999998    7.7357082300000002   -0.6490793700000000
     0.0000000000000000    0.0000000000000000   22.9756335599999986
  W               N               H             
    27    36     1
Direct
  0.0921553137276534  0.0034867789269716  0.3728609778702757
  0.0924371611041468  0.3382448351793699  0.3755553419567126
  0.0919303121795186  0.6698428221271218  0.3725393163126376
  0.4261830508848802  0.0043698472675867  0.3738981369263988
  0.4261851517295018  0.3380860245180917  0.3751915904673306
  0.4262947981098958  0.6719871071593306  0.3746879807087928
  0.7587314397255397  0.0046012081104741  0.3740557762372065
  0.7586759180339523  0.3370014145791527  0.3750610666871907
  0.7590743311042494  0.6698731418514514  0.3721087675482470
  0.1323974991280134  0.0919419313086988  0.6218351981017379
  0.1136724344216950  0.3911678832973764  0.6228648435928801
  0.1214377109238435  0.7647584437899839  0.6274011506168515
  0.4602964535456553  0.1000477048032124  0.6260788010534664
  0.4542348530690326  0.3931806012561223  0.6223194061566475
  0.4617704034013964  0.7495939790379101  0.6346654806862719
  0.8140150884030801  0.0995295386630056  0.6260249609041726
  0.7984933761537411  0.4316366472236691  0.6330177898610843
  0.8155755959471623  0.7612246682244213  0.6258310750895413
  0.1048982357604996  0.0320539022164150  0.4982927805363122
  0.1150627606654110  0.3923918447246419  0.5012402122775935
  0.1081426715124460  0.7063421926877187  0.4997817700409166
  0.4396503792871003  0.0299124029071732  0.5002767175565670
  0.4542215922876126  0.3917208495809603  0.5009411528611528
  0.4436388357453276  0.7108730834321905  0.5031502816472135
  0.7663176284584235  0.0301718252749410  0.5002751041238634
  0.7782252544086452  0.3793270646778302  0.5004364654791479
  0.7758446393965364  0.7082246765097807  0.4994709189293454
  0.2469002554521619  0.3176306930497795  0.6788407062126192
  0.2354420205573391  0.6366571113828394  0.6662026529524274
  0.2484893081183435  0.9790612499558571  0.6731484920691039
  0.5830464946337711  0.3091218213189894  0.6782192371675856
  0.5762695071845241  0.6372262736530780  0.6664668047316640
  0.5752508782416291  0.9762969444865954  0.6681869388520935
  0.9026312367962597  0.3117978823498154  0.6769021640227851
  0.9112999382560076  0.6415537686161574  0.6796640690615554
  0.9036754863033959  0.9773994356699065  0.6725716995345932
  0.1962680691847984  0.2101575662918552  0.3268643505358502
  0.1964248681998359  0.5420090273893103  0.3258582394346066
  0.1941171755322336  0.8747235497030068  0.3244023397193622
  0.5282764297198154  0.2102381182223197  0.3259960423195399
  0.5285701473001795  0.5420507995565174  0.3257514800117954
  0.5293315696556873  0.8754932218108403  0.3250414277461476
  0.8646939029562944  0.2103496794511490  0.3262395903292466
  0.8620913606701226  0.5413856243193662  0.3244664848502718
  0.8634541798434264  0.8750256585974973  0.3244369307375701
  0.0057794022938502  0.1721379024003390  0.5565129124802128
  0.0026021323129915  0.5065443002704181  0.5640581397644137
  0.0117173583094732  0.8477006062419913  0.5615939013178003
  0.3409754540877480  0.1724315405828319  0.5567054062780921
  0.3408491571727853  0.5062809389506372  0.5622822276279476
  0.3376884540782017  0.8398298001949943  0.5637671061677439
  0.6713861416564736  0.1687731258213659  0.5602063665293067
  0.6804318626137156  0.5089503522298696  0.5639988502714266
  0.6767454086190590  0.8404475320508762  0.5634151666957188
  0.2161769112846891  0.2529337496228282  0.4410592764888840
  0.2143017804913623  0.5839761865468817  0.4379552495235040
  0.2114598267887377  0.9101279645601024  0.4365986614471374
  0.5459412762280064  0.2477757262363231  0.4391253846418317
  0.5487684721285093  0.5840786780163058  0.4380094195381729
  0.5450672181634406  0.9118801756105106  0.4365514401118418
  0.8807482177966227  0.2483150423332620  0.4393346434070845
  0.8801432848109116  0.5817788764688226  0.4370259511113952
  0.8779099467928572  0.9107294289072423  0.4366881132182255
  0.2544614166497984  0.3313192977939187  0.7234261488609228

  0.00000000E+00  0.00000000E+00  0.00000000E+00
  0.00000000E+00  0.00000000E+00  0.00000000E+00
  0.00000000E+00  0.00000000E+00  0.00000000E+00
  0.00000000E+00  0.00000000E+00  0.00000000E+00
  0.00000000E+00  0.00000000E+00  0.00000000E+00
  0.00000000E+00  0.00000000E+00  0.00000000E+00
  0.00000000E+00  0.00000000E+00  0.00000000E+00
  0.00000000E+00  0.00000000E+00  0.00000000E+00
  0.00000000E+00  0.00000000E+00  0.00000000E+00
  0.00000000E+00  0.00000000E+00  0.00000000E+00
  0.00000000E+00  0.00000000E+00  0.00000000E+00
  0.00000000E+00  0.00000000E+00  0.00000000E+00
  0.00000000E+00  0.00000000E+00  0.00000000E+00
  0.00000000E+00  0.00000000E+00  0.00000000E+00
  0.00000000E+00  0.00000000E+00  0.00000000E+00
  0.00000000E+00  0.00000000E+00  0.00000000E+00
  0.00000000E+00  0.00000000E+00  0.00000000E+00
  0.00000000E+00  0.00000000E+00  0.00000000E+00
  0.00000000E+00  0.00000000E+00  0.00000000E+00
  0.00000000E+00  0.00000000E+00  0.00000000E+00
  0.00000000E+00  0.00000000E+00  0.00000000E+00
  0.00000000E+00  0.00000000E+00  0.00000000E+00
  0.00000000E+00  0.00000000E+00  0.00000000E+00
  0.00000000E+00  0.00000000E+00  0.00000000E+00
  0.00000000E+00  0.00000000E+00  0.00000000E+00
  0.00000000E+00  0.00000000E+00  0.00000000E+00
  0.00000000E+00  0.00000000E+00  0.00000000E+00
  0.00000000E+00  0.00000000E+00  0.00000000E+00
  0.00000000E+00  0.00000000E+00  0.00000000E+00
  0.00000000E+00  0.00000000E+00  0.00000000E+00
  0.00000000E+00  0.00000000E+00  0.00000000E+00
  0.00000000E+00  0.00000000E+00  0.00000000E+00
  0.00000000E+00  0.00000000E+00  0.00000000E+00
  0.00000000E+00  0.00000000E+00  0.00000000E+00
  0.00000000E+00  0.00000000E+00  0.00000000E+00
  0.00000000E+00  0.00000000E+00  0.00000000E+00
  0.00000000E+00  0.00000000E+00  0.00000000E+00
  0.00000000E+00  0.00000000E+00  0.00000000E+00
  0.00000000E+00  0.00000000E+00  0.00000000E+00
  0.00000000E+00  0.00000000E+00  0.00000000E+00
  0.00000000E+00  0.00000000E+00  0.00000000E+00
  0.00000000E+00  0.00000000E+00  0.00000000E+00
  0.00000000E+00  0.00000000E+00  0.00000000E+00
  0.00000000E+00  0.00000000E+00  0.00000000E+00
  0.00000000E+00  0.00000000E+00  0.00000000E+00
  0.00000000E+00  0.00000000E+00  0.00000000E+00
  0.00000000E+00  0.00000000E+00  0.00000000E+00
  0.00000000E+00  0.00000000E+00  0.00000000E+00
  0.00000000E+00  0.00000000E+00  0.00000000E+00
  0.00000000E+00  0.00000000E+00  0.00000000E+00
  0.00000000E+00  0.00000000E+00  0.00000000E+00
  0.00000000E+00  0.00000000E+00  0.00000000E+00
  0.00000000E+00  0.00000000E+00  0.00000000E+00
  0.00000000E+00  0.00000000E+00  0.00000000E+00
  0.00000000E+00  0.00000000E+00  0.00000000E+00
  0.00000000E+00  0.00000000E+00  0.00000000E+00
  0.00000000E+00  0.00000000E+00  0.00000000E+00
  0.00000000E+00  0.00000000E+00  0.00000000E+00
  0.00000000E+00  0.00000000E+00  0.00000000E+00
  0.00000000E+00  0.00000000E+00  0.00000000E+00
  0.00000000E+00  0.00000000E+00  0.00000000E+00
  0.00000000E+00  0.00000000E+00  0.00000000E+00
  0.00000000E+00  0.00000000E+00  0.00000000E+00
  0.00000000E+00  0.00000000E+00  0.00000000E+00
