W  N  H                                 
   1.0000000000000000     
     8.1412555599999994    0.0000000000000000   -0.0072088000000000
    -0.0003590100000000    8.9274485400000003   -0.2580443100000000
     0.0000000000000000    0.0000000000000000   22.7155575100000000
  W               N               H             
    36    24     1
Direct
  0.2293977055429825  0.1290173500776916  0.6022080029675109
  0.2293734978732183  0.4526380257385040  0.6034016911861323
  0.2290601054243567  0.8072522328276848  0.6025519322293246
  0.7278945018091555  0.1290514981997622  0.6020867513652854
  0.7277316738531519  0.4525573705395157  0.6034424180844470
  0.7280919374464611  0.8076601883288218  0.6024821337360521
  0.4780327677692739  0.2846954603763838  0.3991499834866004
  0.4777706346218828  0.6083892628530732  0.3980840948981617
  0.4779421971501350  0.9587282390156360  0.3978047554707477
  0.9780008618989592  0.2928566112157479  0.3977310575876896
  0.9779570004983575  0.6162258217706772  0.3991051325552543
  0.9779589949512186  0.9403669588645570  0.3975211253032279
  0.2265903433455324  0.1137710007569676  0.3418188770026855
  0.2276870033380667  0.4461265104144675  0.3405101002090568
  0.2290063583204983  0.7780060398618255  0.3417655033963146
  0.7288305947109952  0.1142636930640926  0.3418447522080350
  0.7275962944316369  0.4460993301805281  0.3405000005489537
  0.7267850738695955  0.7779661218658805  0.3417893915680219
  0.4788798150222423  0.2990042899250912  0.6623326706003487
  0.4786310287643937  0.6348838430895071  0.6564180884902828
  0.4786753650883072  0.9680242281881407  0.6620728002105336
  0.9787729597190230  0.2978682379382074  0.6606199219079738
  0.9784245600163889  0.6344184533009550  0.6567383521733664
  0.9784524815764857  0.9691861721861268  0.6603383668883254
  0.4784171673915009  0.2912939168004495  0.5483347591143082
  0.4785035624608441  0.6283240978908914  0.5478835414197206
  0.4785500154254222  0.9601803648753200  0.5475749368828395
  0.9785555039737306  0.2898919069214896  0.5483742965453320
  0.9785081483092030  0.6273889670246815  0.5485468235974823
  0.9785074425360097  0.9631518811041203  0.5477340410254247
  0.2279704024668998  0.1213639453753886  0.4520134200611059
  0.2280071931306150  0.4547348484964650  0.4529847624333231
  0.2282927502051771  0.7854418128029447  0.4520520330020492
  0.7284675309025658  0.1214028244261491  0.4520694390063021
  0.7283769195326781  0.4547152310449161  0.4529234463630963
  0.7279360301805483  0.7854358946600905  0.4520415546510690
  0.2276469173494741  0.3007410696983257  0.6724260872531901
  0.2284301991225834  0.6349451948368809  0.6659455867870154
  0.2273991221600975  0.9688794936455817  0.6721243882356202
  0.7299749865608335  0.3006867849689475  0.6724383180578500
  0.7286105407260043  0.6351142955584141  0.6658882184817757
  0.7298130588875317  0.9690451899328579  0.6721717631535444
  0.4776617617414814  0.1136627572504159  0.3292041216752680
  0.4775690883513330  0.4432476551915271  0.3288354360233676
  0.4778397662446882  0.7789972201252165  0.3329777055654801
  0.9776638740579019  0.1121500108705747  0.3330597299087041
  0.9775987582230933  0.4467749612070746  0.3286512970973186
  0.9778255193649316  0.7760462263432427  0.3289111552327334
  0.4781958953172078  0.1209317973703906  0.4733413796083486
  0.4782545807797388  0.4570645317641802  0.4731140102342072
  0.4781450709463216  0.7886555812559143  0.4692455408846682
  0.9782310331426413  0.1222196642302139  0.4692792869538001
  0.9782026130547110  0.4519857806034642  0.4729394892043468
  0.9781218495791708  0.7913245314350105  0.4725744847204001
  0.2283479202587360  0.2932255817705713  0.5283546207902542
  0.2279931708695582  0.6249717207743900  0.5318736034374482
  0.2282965527571166  0.9580115096480896  0.5279252532362670
  0.7285096054531907  0.2933774766153777  0.5283617776212914
  0.7288551782547686  0.6250350243741511  0.5319378148352852
  0.7285789253778152  0.9580274035435606  0.5278107120750544
  0.4785487978615629  0.1368176749828659  0.7144334007503504

  0.00000000E+00  0.00000000E+00  0.00000000E+00
  0.00000000E+00  0.00000000E+00  0.00000000E+00
  0.00000000E+00  0.00000000E+00  0.00000000E+00
  0.00000000E+00  0.00000000E+00  0.00000000E+00
  0.00000000E+00  0.00000000E+00  0.00000000E+00
  0.00000000E+00  0.00000000E+00  0.00000000E+00
  0.00000000E+00  0.00000000E+00  0.00000000E+00
  0.00000000E+00  0.00000000E+00  0.00000000E+00
  0.00000000E+00  0.00000000E+00  0.00000000E+00
  0.00000000E+00  0.00000000E+00  0.00000000E+00
  0.00000000E+00  0.00000000E+00  0.00000000E+00
  0.00000000E+00  0.00000000E+00  0.00000000E+00
  0.00000000E+00  0.00000000E+00  0.00000000E+00
  0.00000000E+00  0.00000000E+00  0.00000000E+00
  0.00000000E+00  0.00000000E+00  0.00000000E+00
  0.00000000E+00  0.00000000E+00  0.00000000E+00
  0.00000000E+00  0.00000000E+00  0.00000000E+00
  0.00000000E+00  0.00000000E+00  0.00000000E+00
  0.00000000E+00  0.00000000E+00  0.00000000E+00
  0.00000000E+00  0.00000000E+00  0.00000000E+00
  0.00000000E+00  0.00000000E+00  0.00000000E+00
  0.00000000E+00  0.00000000E+00  0.00000000E+00
  0.00000000E+00  0.00000000E+00  0.00000000E+00
  0.00000000E+00  0.00000000E+00  0.00000000E+00
  0.00000000E+00  0.00000000E+00  0.00000000E+00
  0.00000000E+00  0.00000000E+00  0.00000000E+00
  0.00000000E+00  0.00000000E+00  0.00000000E+00
  0.00000000E+00  0.00000000E+00  0.00000000E+00
  0.00000000E+00  0.00000000E+00  0.00000000E+00
  0.00000000E+00  0.00000000E+00  0.00000000E+00
  0.00000000E+00  0.00000000E+00  0.00000000E+00
  0.00000000E+00  0.00000000E+00  0.00000000E+00
  0.00000000E+00  0.00000000E+00  0.00000000E+00
  0.00000000E+00  0.00000000E+00  0.00000000E+00
  0.00000000E+00  0.00000000E+00  0.00000000E+00
  0.00000000E+00  0.00000000E+00  0.00000000E+00
  0.00000000E+00  0.00000000E+00  0.00000000E+00
  0.00000000E+00  0.00000000E+00  0.00000000E+00
  0.00000000E+00  0.00000000E+00  0.00000000E+00
  0.00000000E+00  0.00000000E+00  0.00000000E+00
  0.00000000E+00  0.00000000E+00  0.00000000E+00
  0.00000000E+00  0.00000000E+00  0.00000000E+00
  0.00000000E+00  0.00000000E+00  0.00000000E+00
  0.00000000E+00  0.00000000E+00  0.00000000E+00
  0.00000000E+00  0.00000000E+00  0.00000000E+00
  0.00000000E+00  0.00000000E+00  0.00000000E+00
  0.00000000E+00  0.00000000E+00  0.00000000E+00
  0.00000000E+00  0.00000000E+00  0.00000000E+00
  0.00000000E+00  0.00000000E+00  0.00000000E+00
  0.00000000E+00  0.00000000E+00  0.00000000E+00
  0.00000000E+00  0.00000000E+00  0.00000000E+00
  0.00000000E+00  0.00000000E+00  0.00000000E+00
  0.00000000E+00  0.00000000E+00  0.00000000E+00
  0.00000000E+00  0.00000000E+00  0.00000000E+00
  0.00000000E+00  0.00000000E+00  0.00000000E+00
  0.00000000E+00  0.00000000E+00  0.00000000E+00
  0.00000000E+00  0.00000000E+00  0.00000000E+00
  0.00000000E+00  0.00000000E+00  0.00000000E+00
  0.00000000E+00  0.00000000E+00  0.00000000E+00
  0.00000000E+00  0.00000000E+00  0.00000000E+00
  0.00000000E+00  0.00000000E+00  0.00000000E+00
