W  N  H                                 
   1.0000000000000000     
     8.9183705999999994    0.0000000000000000    0.0000000000000000
    -4.4591852999999997    7.7235354899999997    0.0000000000000000
     0.0000000000000000    0.0000000000000000   24.2330780600000004
  W               N               H             
    36    27     1
Direct
  0.1118476560741258  0.2235078943500250  0.4438189483041718
  0.1119536465879594  0.5572406231759208  0.4432210906465519
  0.1114587097548586  0.8899968279855131  0.4438627946083345
  0.4449039869066138  0.2231413038132296  0.4441427231473136
  0.4450873173751657  0.5564665123182323  0.4438173427747071
  0.4452047782306520  0.8899968279855131  0.4438627946083345
  0.7783269082759043  0.2235078943500250  0.4438189483041718
  0.7780458649430644  0.5564665123182323  0.4438173427747071
  0.7782798273275126  0.8898929946550214  0.4437686848321061
  0.2228827844464251  0.1119441052089245  0.5556015129575405
  0.2223171025446605  0.4452318849811898  0.5554910566306149
  0.2218785230249014  0.7770903760497977  0.5554574909626787
  0.5557279907625045  0.1119441052089245  0.5556015129575405
  0.5561743862605660  0.4456821025211271  0.5556742917658197
  0.5558073568323993  0.7788784395445463  0.5552303558373154
  0.8898861317577732  0.1131056035155424  0.5551232600389967
  0.8895814424365266  0.4452318849811898  0.5554910566306149
  0.8897377527121522  0.7788784395445463  0.5552303558373154
  0.9996586505793787  0.0001116077066040  0.3507176781399946
  0.0001873582879715  0.3337080565759388  0.3503152236799207
  0.0004133406514296  0.6672707322633233  0.3505098636380925
  0.3340568154926960  0.0014469709853948  0.3507164325419650
  0.3339154571987574  0.3336598034772399  0.3505616695971696
  0.3335240516118907  0.6672707322633233  0.3505098636380925
  0.6671196171272225  0.0001116077066040  0.3507176781399946
  0.6664110162784879  0.3336598034772399  0.3505616695971696
  0.6671157384853661  0.6675648069707346  0.3505313063940799
  0.0016033273868777  0.0036129904287150  0.6499623921758944
  0.0026773750181219  0.3386880900362398  0.6484539993616854
  0.0029419601096478  0.6702105992742183  0.6486471145165353
  0.3331091816469150  0.9995516932938392  0.6482380921017978
  0.3323974445196949  0.3399010194329826  0.6484710022233171
  0.3339352991645747  0.6702105992742183  0.6486471145165353
  0.6686763230418344  0.0036129904287150  0.6499623921758944
  0.6741702449132924  0.3399010194329826  0.6484710022233171
  0.6685626897952572  0.6704587195905169  0.6498959198421455
  0.0006509045661425  0.0012443632116806  0.4999012468344081
  0.0009855867931090  0.3353045135862139  0.4990875787175779
  0.0003524815263107  0.6673445668923504  0.4991767616891328
  0.3334176549325888  0.0001686498651804  0.5000418891952543
  0.3337373342645908  0.3347447142049608  0.4999888110513636
  0.3336587553660373  0.6673445668923504  0.4991767616891328
  0.6672601286455361  0.0012443632116806  0.4999012468344081
  0.6676740499403682  0.3347447142049608  0.4999888110513636
  0.6671359115604257  0.6676051531208467  0.4999723828125819
  0.2224720683632814  0.1117312039107916  0.3099002173614885
  0.2228247260967315  0.4449125600865222  0.3099425289024598
  0.2229206617373372  0.7791746534746694  0.3100325863672969
  0.5559258055475080  0.1117312039107916  0.3099002173614885
  0.5557740211547845  0.4448813623095635  0.3097691300571225
  0.5558307023987510  0.7783945473244618  0.3097806389461210
  0.8891774884887595  0.1116882969775206  0.3097698765142619
  0.8887545039897886  0.4449125600865222  0.3099425289024598
  0.8892305049257077  0.7783945473244618  0.3097806389461210
  0.1136317662186452  0.2231980794027970  0.6905792042268197
  0.1128660053288020  0.5590653506575997  0.6901940625970119
  0.1140178982364891  0.8961337907704727  0.6904905152187615
  0.4461241248855128  0.2255815797710275  0.6956338690232708
  0.4487192831918181  0.5581860164242745  0.6906086945595051
  0.4487825625339887  0.8961337907704727  0.6904905152187615
  0.7762329731841561  0.2231980794027970  0.6905792042268197
  0.7761333932324603  0.5581860164242745  0.6906086945595051
  0.7795906267655610  0.8925145935311243  0.6899808581832538
  0.4465399885616524  0.2264133271233016  0.7379069508298211

  0.00000000E+00  0.00000000E+00  0.00000000E+00
  0.00000000E+00  0.00000000E+00  0.00000000E+00
  0.00000000E+00  0.00000000E+00  0.00000000E+00
  0.00000000E+00  0.00000000E+00  0.00000000E+00
  0.00000000E+00  0.00000000E+00  0.00000000E+00
  0.00000000E+00  0.00000000E+00  0.00000000E+00
  0.00000000E+00  0.00000000E+00  0.00000000E+00
  0.00000000E+00  0.00000000E+00  0.00000000E+00
  0.00000000E+00  0.00000000E+00  0.00000000E+00
  0.00000000E+00  0.00000000E+00  0.00000000E+00
  0.00000000E+00  0.00000000E+00  0.00000000E+00
  0.00000000E+00  0.00000000E+00  0.00000000E+00
  0.00000000E+00  0.00000000E+00  0.00000000E+00
  0.00000000E+00  0.00000000E+00  0.00000000E+00
  0.00000000E+00  0.00000000E+00  0.00000000E+00
  0.00000000E+00  0.00000000E+00  0.00000000E+00
  0.00000000E+00  0.00000000E+00  0.00000000E+00
  0.00000000E+00  0.00000000E+00  0.00000000E+00
  0.00000000E+00  0.00000000E+00  0.00000000E+00
  0.00000000E+00  0.00000000E+00  0.00000000E+00
  0.00000000E+00  0.00000000E+00  0.00000000E+00
  0.00000000E+00  0.00000000E+00  0.00000000E+00
  0.00000000E+00  0.00000000E+00  0.00000000E+00
  0.00000000E+00  0.00000000E+00  0.00000000E+00
  0.00000000E+00  0.00000000E+00  0.00000000E+00
  0.00000000E+00  0.00000000E+00  0.00000000E+00
  0.00000000E+00  0.00000000E+00  0.00000000E+00
  0.00000000E+00  0.00000000E+00  0.00000000E+00
  0.00000000E+00  0.00000000E+00  0.00000000E+00
  0.00000000E+00  0.00000000E+00  0.00000000E+00
  0.00000000E+00  0.00000000E+00  0.00000000E+00
  0.00000000E+00  0.00000000E+00  0.00000000E+00
  0.00000000E+00  0.00000000E+00  0.00000000E+00
  0.00000000E+00  0.00000000E+00  0.00000000E+00
  0.00000000E+00  0.00000000E+00  0.00000000E+00
  0.00000000E+00  0.00000000E+00  0.00000000E+00
  0.00000000E+00  0.00000000E+00  0.00000000E+00
  0.00000000E+00  0.00000000E+00  0.00000000E+00
  0.00000000E+00  0.00000000E+00  0.00000000E+00
  0.00000000E+00  0.00000000E+00  0.00000000E+00
  0.00000000E+00  0.00000000E+00  0.00000000E+00
  0.00000000E+00  0.00000000E+00  0.00000000E+00
  0.00000000E+00  0.00000000E+00  0.00000000E+00
  0.00000000E+00  0.00000000E+00  0.00000000E+00
  0.00000000E+00  0.00000000E+00  0.00000000E+00
  0.00000000E+00  0.00000000E+00  0.00000000E+00
  0.00000000E+00  0.00000000E+00  0.00000000E+00
  0.00000000E+00  0.00000000E+00  0.00000000E+00
  0.00000000E+00  0.00000000E+00  0.00000000E+00
  0.00000000E+00  0.00000000E+00  0.00000000E+00
  0.00000000E+00  0.00000000E+00  0.00000000E+00
  0.00000000E+00  0.00000000E+00  0.00000000E+00
  0.00000000E+00  0.00000000E+00  0.00000000E+00
  0.00000000E+00  0.00000000E+00  0.00000000E+00
  0.00000000E+00  0.00000000E+00  0.00000000E+00
  0.00000000E+00  0.00000000E+00  0.00000000E+00
  0.00000000E+00  0.00000000E+00  0.00000000E+00
  0.00000000E+00  0.00000000E+00  0.00000000E+00
  0.00000000E+00  0.00000000E+00  0.00000000E+00
  0.00000000E+00  0.00000000E+00  0.00000000E+00
  0.00000000E+00  0.00000000E+00  0.00000000E+00
  0.00000000E+00  0.00000000E+00  0.00000000E+00
  0.00000000E+00  0.00000000E+00  0.00000000E+00
  0.00000000E+00  0.00000000E+00  0.00000000E+00
