W  N  H                                 
   1.0000000000000000     
     8.8091896799999994    0.0000000000000000   -0.0322629300000000
    -0.0041149800000000    8.8105912800000006    0.0003707700000000
     0.0000000000000000    0.0000000000000000   23.8006870200000016
  W               N               H             
    45    27     1
Direct
  0.0968942304244705  0.2371137516433427  0.3315919285422593
  0.1115559025572679  0.5819992002353919  0.3295112438559848
  0.1126617046726154  0.8971695888264578  0.3296073564113353
  0.4396387936067812  0.2399236186658050  0.3315416505407035
  0.4262772805441603  0.5807447714012960  0.3292621899775898
  0.4275779731751432  0.8961101387041355  0.3286871671225446
  0.7701317848271517  0.2397014685783323  0.3287597508852327
  0.7702319649219476  0.5660390042459662  0.3318026367402898
  0.7654984292712820  0.9097081478958027  0.3317184691093092
  0.1127160935294449  0.2374749452800397  0.6682843440397724
  0.0950628651886574  0.5842225382879231  0.6701435820768110
  0.0956754159882711  0.8967206765868532  0.6707056403353944
  0.4373694566454237  0.2408315355963498  0.6728892166049231
  0.4382809635186961  0.5655804484321708  0.6681495947613009
  0.4403821564002326  0.9101286514423185  0.6678169389249188
  0.7665059858867431  0.2399556514958528  0.6683769935872672
  0.7830927914621917  0.5838403903387656  0.6706854409837860
  0.7810247167066113  0.8953735075903484  0.6709187046054471
  0.2705376081948920  0.0726590751936847  0.5890275234112782
  0.2679299559032669  0.4090446397706545  0.5892188620588000
  0.2738549516609686  0.7401788698366191  0.5886701572200371
  0.6027583633874470  0.0730559167063180  0.5895890818542036
  0.6068263898424465  0.4080107728751818  0.5897118846383838
  0.6031941639380741  0.7388177659902903  0.5889512975700567
  0.9365046809202200  0.0751666159460593  0.5893530249335646
  0.9386707264381901  0.4033460681242902  0.5897244179796977
  0.9392307670233667  0.7448015940694529  0.5862823911017813
  0.2704411455378815  0.0721582134773901  0.4104825857928491
  0.2687785353970998  0.4045692291701312  0.4107341914270013
  0.2693620392523755  0.7397405588548354  0.4137321476918425
  0.6040403706064849  0.0730896731039539  0.4103961265417534
  0.6024190581830402  0.4057021734141519  0.4108475593237754
  0.6035029524727908  0.7379263091288992  0.4107841161921406
  0.9359911585570040  0.0720142047854995  0.4108024385677340
  0.9375635059568949  0.4058896286875588  0.4111361936717173
  0.9360755338875701  0.7396312049695335  0.4105255093205558
  0.1043668727153701  0.2170444502996134  0.4997923350165844
  0.0928456697348151  0.5779499768807516  0.4994078107387637
  0.1099898598599980  0.9197811273033596  0.5001118920475981
  0.4367630358738208  0.2587571186618686  0.5069686589586240
  0.4296111892619967  0.5582361908903108  0.4972925011916879
  0.4528253884054561  0.8997542956287320  0.4968316899647999
  0.7707724040932808  0.2405859321236849  0.4926884104671085
  0.7907623396163853  0.5693681864681265  0.5026954114122560
  0.7491451820043730  0.9050923170701803  0.5031463331580409
  0.2674516844770203  0.0656654717152598  0.6818598731471295
  0.2641336503900040  0.4134849705327943  0.6818207158234196
  0.2752737469456113  0.7395976174931542  0.6818528447347424
  0.6110720853464678  0.0677278433268170  0.6818170938059405
  0.6126849767968964  0.4128897741625035  0.6819119559501262
  0.6022548668508817  0.7386450618457855  0.6826780032738906
  0.9381418536349559  0.0758406808080422  0.6825536391608071
  0.9394150359424565  0.4028628775371078  0.6821151540958197
  0.9389418766712987  0.7402522706889731  0.7045636667345468
  0.2695432244888043  0.0748395006823338  0.3166991206249706
  0.2681313350782985  0.4026850460987098  0.3172104666686659
  0.2692382687418945  0.7389441415525475  0.2968568941589638
  0.5978828837843283  0.0695663128724451  0.3169003224286155
  0.5978189954053763  0.4095495260647988  0.3173942926106323
  0.6049093059667131  0.7373243732181988  0.3167243900431341
  0.9386453719949823  0.0669492642145283  0.3175373066982538
  0.9407314102228381  0.4098542509444074  0.3172767731373059
  0.9329069421569959  0.7398141639353083  0.3178405629433537
  0.2935678330153447  0.0727179139848096  0.4997102324126150
  0.2483576879487412  0.4017968992031815  0.4998470384549842
  0.2718756657778485  0.7409358259035479  0.5000937018416843
  0.5945579589584146  0.0859811521204969  0.4998763823308892
  0.6147643731159192  0.4158169860602156  0.5000459409305824
  0.6058546984776824  0.7150996613260220  0.4997902695148693
  0.9230387798686513  0.0617206958605074  0.5000287060645474
  0.9505127379213610  0.3923444667073992  0.5001870792208951
  0.9347274091835172  0.7598829586809858  0.4994606832953502
  0.4380365727841053  0.2403285177808118  0.7462640285357460

  0.00000000E+00  0.00000000E+00  0.00000000E+00
  0.00000000E+00  0.00000000E+00  0.00000000E+00
  0.00000000E+00  0.00000000E+00  0.00000000E+00
  0.00000000E+00  0.00000000E+00  0.00000000E+00
  0.00000000E+00  0.00000000E+00  0.00000000E+00
  0.00000000E+00  0.00000000E+00  0.00000000E+00
  0.00000000E+00  0.00000000E+00  0.00000000E+00
  0.00000000E+00  0.00000000E+00  0.00000000E+00
  0.00000000E+00  0.00000000E+00  0.00000000E+00
  0.00000000E+00  0.00000000E+00  0.00000000E+00
  0.00000000E+00  0.00000000E+00  0.00000000E+00
  0.00000000E+00  0.00000000E+00  0.00000000E+00
  0.00000000E+00  0.00000000E+00  0.00000000E+00
  0.00000000E+00  0.00000000E+00  0.00000000E+00
  0.00000000E+00  0.00000000E+00  0.00000000E+00
  0.00000000E+00  0.00000000E+00  0.00000000E+00
  0.00000000E+00  0.00000000E+00  0.00000000E+00
  0.00000000E+00  0.00000000E+00  0.00000000E+00
  0.00000000E+00  0.00000000E+00  0.00000000E+00
  0.00000000E+00  0.00000000E+00  0.00000000E+00
  0.00000000E+00  0.00000000E+00  0.00000000E+00
  0.00000000E+00  0.00000000E+00  0.00000000E+00
  0.00000000E+00  0.00000000E+00  0.00000000E+00
  0.00000000E+00  0.00000000E+00  0.00000000E+00
  0.00000000E+00  0.00000000E+00  0.00000000E+00
  0.00000000E+00  0.00000000E+00  0.00000000E+00
  0.00000000E+00  0.00000000E+00  0.00000000E+00
  0.00000000E+00  0.00000000E+00  0.00000000E+00
  0.00000000E+00  0.00000000E+00  0.00000000E+00
  0.00000000E+00  0.00000000E+00  0.00000000E+00
  0.00000000E+00  0.00000000E+00  0.00000000E+00
  0.00000000E+00  0.00000000E+00  0.00000000E+00
  0.00000000E+00  0.00000000E+00  0.00000000E+00
  0.00000000E+00  0.00000000E+00  0.00000000E+00
  0.00000000E+00  0.00000000E+00  0.00000000E+00
  0.00000000E+00  0.00000000E+00  0.00000000E+00
  0.00000000E+00  0.00000000E+00  0.00000000E+00
  0.00000000E+00  0.00000000E+00  0.00000000E+00
  0.00000000E+00  0.00000000E+00  0.00000000E+00
  0.00000000E+00  0.00000000E+00  0.00000000E+00
  0.00000000E+00  0.00000000E+00  0.00000000E+00
  0.00000000E+00  0.00000000E+00  0.00000000E+00
  0.00000000E+00  0.00000000E+00  0.00000000E+00
  0.00000000E+00  0.00000000E+00  0.00000000E+00
  0.00000000E+00  0.00000000E+00  0.00000000E+00
  0.00000000E+00  0.00000000E+00  0.00000000E+00
  0.00000000E+00  0.00000000E+00  0.00000000E+00
  0.00000000E+00  0.00000000E+00  0.00000000E+00
  0.00000000E+00  0.00000000E+00  0.00000000E+00
  0.00000000E+00  0.00000000E+00  0.00000000E+00
  0.00000000E+00  0.00000000E+00  0.00000000E+00
  0.00000000E+00  0.00000000E+00  0.00000000E+00
  0.00000000E+00  0.00000000E+00  0.00000000E+00
  0.00000000E+00  0.00000000E+00  0.00000000E+00
  0.00000000E+00  0.00000000E+00  0.00000000E+00
  0.00000000E+00  0.00000000E+00  0.00000000E+00
  0.00000000E+00  0.00000000E+00  0.00000000E+00
  0.00000000E+00  0.00000000E+00  0.00000000E+00
  0.00000000E+00  0.00000000E+00  0.00000000E+00
  0.00000000E+00  0.00000000E+00  0.00000000E+00
  0.00000000E+00  0.00000000E+00  0.00000000E+00
  0.00000000E+00  0.00000000E+00  0.00000000E+00
  0.00000000E+00  0.00000000E+00  0.00000000E+00
  0.00000000E+00  0.00000000E+00  0.00000000E+00
  0.00000000E+00  0.00000000E+00  0.00000000E+00
  0.00000000E+00  0.00000000E+00  0.00000000E+00
  0.00000000E+00  0.00000000E+00  0.00000000E+00
  0.00000000E+00  0.00000000E+00  0.00000000E+00
  0.00000000E+00  0.00000000E+00  0.00000000E+00
  0.00000000E+00  0.00000000E+00  0.00000000E+00
  0.00000000E+00  0.00000000E+00  0.00000000E+00
  0.00000000E+00  0.00000000E+00  0.00000000E+00
  0.00000000E+00  0.00000000E+00  0.00000000E+00
