W  N  H                                 
   1.0000000000000000     
     8.8135064100000005    0.0000000000000000   -0.6873464400000000
    -0.0075723000000000    8.8275280200000008   -0.4840591800000000
     0.0000000000000000    0.0000000000000000   21.3095355700000013
  W               N               H             
    36    18     1
Direct
  0.1405664577317725  0.1460138120275127  0.4567222987064355
  0.1407304606101248  0.4799487145358298  0.4589300630393718
  0.1404918536045252  0.8136459256718329  0.4567225721002357
  0.4740129339601853  0.1457101013646356  0.4558625671472389
  0.4740750741163706  0.4796381654665793  0.4565968505773937
  0.4740770236332785  0.8130972842957924  0.4559330410985238
  0.8069517340775977  0.1461072907857713  0.4559730599704613
  0.8067273452654360  0.4797703499230583  0.4565582084822143
  0.8067712820479480  0.8131592852351270  0.4558953276106472
  0.1734125603357350  0.1695800313987819  0.6323898655936768
  0.1735594534292136  0.5028554948502225  0.6341403971161504
  0.1732469949304557  0.8364332637124916  0.6325370957254580
  0.5081064981183856  0.1687716869845546  0.6335442772633811
  0.5063787090788322  0.5024589534942345  0.6323748687544644
  0.5076877872444865  0.8377429163839363  0.6333832903770094
  0.8394549781820093  0.1683268773075687  0.6333881330552098
  0.8399611279437795  0.5036766999033612  0.6324414889490573
  0.8391978378980840  0.8367485843770036  0.6338187400465023
  0.2902111093399570  0.3010342373765864  0.3667279832256075
  0.2900746981949314  0.6347881883340203  0.3666302704923525
  0.2902099791375175  0.9679737380347290  0.3659427317160884
  0.6240158345773100  0.3017997876883308  0.3659461578615250
  0.6232789578992941  0.6344350180578324  0.3659564742668742
  0.6231250283067411  0.9677857782309984  0.3654903830664338
  0.9565380253025979  0.3014757076027249  0.3665092133080354
  0.9577515120907574  0.6344137581115958  0.3665940982551604
  0.9571961520786784  0.9678058997179031  0.3660768370048713
  0.3252169391295761  0.3228183680855247  0.5433179548833588
  0.3251178278348804  0.6594779513550373  0.5432694783820943
  0.3239620096999606  0.9910744979438800  0.5427605595959596
  0.6565213025180209  0.3234691219862617  0.5426358905775263
  0.6566289962687976  0.6580489516395993  0.5426623654209166
  0.6566490403480301  0.9906921244723613  0.5422649019248862
  0.9882602813091671  0.3228770143079018  0.5434577299797420
  0.9883751126429787  0.6596140976397674  0.5435029393441421
  0.9892245983922816  0.9909338451718646  0.5429043521135998
  0.1210513252746902  0.1330134618470399  0.3534734037890728
  0.1217242383018646  0.4662093353202065  0.3552830562088612
  0.1212155694788750  0.7997233546510865  0.3533355820413477
  0.4543430191531536  0.1332498033917349  0.3523654635482618
  0.4542002552408011  0.4661581016695492  0.3533635759875105
  0.4540222183579298  0.7992371825330795  0.3522529391278623
  0.7877655761789742  0.1327104022070165  0.3523893574393293
  0.7879723951547934  0.4667182494859169  0.3532295732296481
  0.7879184829566628  0.7991255480899079  0.3524385357715106
  0.0096652637372486  0.0046284908292549  0.6461984860079963
  0.0070787712798540  0.3361623405393350  0.6454560808185220
  0.0078230166692891  0.6729576012217157  0.6456318272439058
  0.3421129762742748  0.0048146622333684  0.6460631930087130
  0.3441355083451845  0.3360545895625565  0.6454426773450054
  0.3441983059400766  0.6730380400672467  0.6452993708875622
  0.6762398830347380  0.0047109817473594  0.6471421489310241
  0.6761516345978648  0.3384369521926646  0.6457795927671233
  0.6752424478746641  0.6708861814663718  0.6459606735931843
  0.1889476348693723  0.5135833674693907  0.7159061952209507

  0.00000000E+00  0.00000000E+00  0.00000000E+00
  0.00000000E+00  0.00000000E+00  0.00000000E+00
  0.00000000E+00  0.00000000E+00  0.00000000E+00
  0.00000000E+00  0.00000000E+00  0.00000000E+00
  0.00000000E+00  0.00000000E+00  0.00000000E+00
  0.00000000E+00  0.00000000E+00  0.00000000E+00
  0.00000000E+00  0.00000000E+00  0.00000000E+00
  0.00000000E+00  0.00000000E+00  0.00000000E+00
  0.00000000E+00  0.00000000E+00  0.00000000E+00
  0.00000000E+00  0.00000000E+00  0.00000000E+00
  0.00000000E+00  0.00000000E+00  0.00000000E+00
  0.00000000E+00  0.00000000E+00  0.00000000E+00
  0.00000000E+00  0.00000000E+00  0.00000000E+00
  0.00000000E+00  0.00000000E+00  0.00000000E+00
  0.00000000E+00  0.00000000E+00  0.00000000E+00
  0.00000000E+00  0.00000000E+00  0.00000000E+00
  0.00000000E+00  0.00000000E+00  0.00000000E+00
  0.00000000E+00  0.00000000E+00  0.00000000E+00
  0.00000000E+00  0.00000000E+00  0.00000000E+00
  0.00000000E+00  0.00000000E+00  0.00000000E+00
  0.00000000E+00  0.00000000E+00  0.00000000E+00
  0.00000000E+00  0.00000000E+00  0.00000000E+00
  0.00000000E+00  0.00000000E+00  0.00000000E+00
  0.00000000E+00  0.00000000E+00  0.00000000E+00
  0.00000000E+00  0.00000000E+00  0.00000000E+00
  0.00000000E+00  0.00000000E+00  0.00000000E+00
  0.00000000E+00  0.00000000E+00  0.00000000E+00
  0.00000000E+00  0.00000000E+00  0.00000000E+00
  0.00000000E+00  0.00000000E+00  0.00000000E+00
  0.00000000E+00  0.00000000E+00  0.00000000E+00
  0.00000000E+00  0.00000000E+00  0.00000000E+00
  0.00000000E+00  0.00000000E+00  0.00000000E+00
  0.00000000E+00  0.00000000E+00  0.00000000E+00
  0.00000000E+00  0.00000000E+00  0.00000000E+00
  0.00000000E+00  0.00000000E+00  0.00000000E+00
  0.00000000E+00  0.00000000E+00  0.00000000E+00
  0.00000000E+00  0.00000000E+00  0.00000000E+00
  0.00000000E+00  0.00000000E+00  0.00000000E+00
  0.00000000E+00  0.00000000E+00  0.00000000E+00
  0.00000000E+00  0.00000000E+00  0.00000000E+00
  0.00000000E+00  0.00000000E+00  0.00000000E+00
  0.00000000E+00  0.00000000E+00  0.00000000E+00
  0.00000000E+00  0.00000000E+00  0.00000000E+00
  0.00000000E+00  0.00000000E+00  0.00000000E+00
  0.00000000E+00  0.00000000E+00  0.00000000E+00
  0.00000000E+00  0.00000000E+00  0.00000000E+00
  0.00000000E+00  0.00000000E+00  0.00000000E+00
  0.00000000E+00  0.00000000E+00  0.00000000E+00
  0.00000000E+00  0.00000000E+00  0.00000000E+00
  0.00000000E+00  0.00000000E+00  0.00000000E+00
  0.00000000E+00  0.00000000E+00  0.00000000E+00
  0.00000000E+00  0.00000000E+00  0.00000000E+00
  0.00000000E+00  0.00000000E+00  0.00000000E+00
  0.00000000E+00  0.00000000E+00  0.00000000E+00
  0.00000000E+00  0.00000000E+00  0.00000000E+00
