W  N  H                                 
   1.0000000000000000     
     8.2911786000000003    0.0000000000000000    0.0417049200000000
    -0.0029166900000000    8.5388672400000001   -0.0752026800000000
     0.0000000000000000    0.0000000000000000   22.1021973100000011
  W               N               H             
    36    12     1
Direct
  0.3780585769456681  0.2406100851457000  0.3506367608320061
  0.3776839517971840  0.5750827192250825  0.3508249635348284
  0.3776112413329158  0.9077585624096640  0.3504830028272058
  0.8774447706011409  0.2405610832765396  0.3506296750179409
  0.8780111703397989  0.5751956970838412  0.3508794539598633
  0.8777439891300869  0.9077306931495013  0.3504686138432541
  0.3758321929247666  0.1821351727728269  0.4688230200065585
  0.3763991501983637  0.5153323305355331  0.4687423441032462
  0.3764416716311177  0.8490488621250325  0.4688622003017520
  0.8769099935801236  0.1821628229098899  0.4689006960927632
  0.8765024611414505  0.5154502723295700  0.4687729697403000
  0.8763583154667679  0.8487755622317099  0.4687622366271352
  0.3736650619338459  0.0833152725479087  0.5893321294782428
  0.3765550302384754  0.4166858617415357  0.5891538702641583
  0.3757693415518280  0.7490529112227639  0.5895027003087978
  0.8761316564350298  0.0831846651205582  0.5893016900968582
  0.8732117636137520  0.4167070829925655  0.5892089296776931
  0.8742207350970703  0.7491329978362493  0.5895326821028419
  0.1241328002272055  0.2414796010338503  0.6488935883079323
  0.1242455513935685  0.5750094237216870  0.6490432228220726
  0.1241165338118486  0.9079450610428822  0.6493956057722720
  0.6239101432354354  0.2396652903451977  0.6487197361866206
  0.6244057241074624  0.5773639681123420  0.6511155482571711
  0.6240701292284054  0.9070658939911902  0.6496148489339347
  0.1254623463374772  0.2990298079156216  0.5311694384267837
  0.1256397886671792  0.6315952752511994  0.5309369187766682
  0.1255782092860897  0.9646428638150168  0.5308177795184722
  0.6256068129639074  0.2966753876420287  0.5293523007295133
  0.6255627521395750  0.6315392384363031  0.5312844636934405
  0.6256476708081893  0.9663902193955914  0.5315367683274720
  0.1271155323042203  0.0657708504312812  0.4101740436761085
  0.1271997813517942  0.3993092276914213  0.4105302550793198
  0.1273515638321709  0.7328406066755310  0.4103365774201010
  0.6271981283293590  0.0651514223011710  0.4104140844683971
  0.6273843479492444  0.3994716812822238  0.4102736362199087
  0.6269669826580115  0.7327676238608647  0.4107836779264833
  0.1280580008712659  0.2329964340083470  0.3397868812917282
  0.1280858008546511  0.5661210382998653  0.3397665638226147
  0.1279817713962732  0.8996957728553175  0.3394600204120184
  0.6280765149042159  0.2325426304872560  0.3396610650461120
  0.6281068167738246  0.5668996148218489  0.3399009335292971
  0.6279462790968455  0.8993887042801981  0.3397300554516814
  0.3728047575688203  0.2489557480599884  0.6593770833128689
  0.3727636499797468  0.5833590296774955  0.6599618415456312
  0.3738178335303496  0.9157569500043713  0.6601661176968551
  0.8751638633049342  0.2488691352149809  0.6593196684039182
  0.8756409892627995  0.5833846124500125  0.6599985368027464
  0.8743563270375547  0.9158122657652782  0.6601861810517101
  0.6233640828281635  0.4031786164731668  0.7052951282746964

  0.00000000E+00  0.00000000E+00  0.00000000E+00
  0.00000000E+00  0.00000000E+00  0.00000000E+00
  0.00000000E+00  0.00000000E+00  0.00000000E+00
  0.00000000E+00  0.00000000E+00  0.00000000E+00
  0.00000000E+00  0.00000000E+00  0.00000000E+00
  0.00000000E+00  0.00000000E+00  0.00000000E+00
  0.00000000E+00  0.00000000E+00  0.00000000E+00
  0.00000000E+00  0.00000000E+00  0.00000000E+00
  0.00000000E+00  0.00000000E+00  0.00000000E+00
  0.00000000E+00  0.00000000E+00  0.00000000E+00
  0.00000000E+00  0.00000000E+00  0.00000000E+00
  0.00000000E+00  0.00000000E+00  0.00000000E+00
  0.00000000E+00  0.00000000E+00  0.00000000E+00
  0.00000000E+00  0.00000000E+00  0.00000000E+00
  0.00000000E+00  0.00000000E+00  0.00000000E+00
  0.00000000E+00  0.00000000E+00  0.00000000E+00
  0.00000000E+00  0.00000000E+00  0.00000000E+00
  0.00000000E+00  0.00000000E+00  0.00000000E+00
  0.00000000E+00  0.00000000E+00  0.00000000E+00
  0.00000000E+00  0.00000000E+00  0.00000000E+00
  0.00000000E+00  0.00000000E+00  0.00000000E+00
  0.00000000E+00  0.00000000E+00  0.00000000E+00
  0.00000000E+00  0.00000000E+00  0.00000000E+00
  0.00000000E+00  0.00000000E+00  0.00000000E+00
  0.00000000E+00  0.00000000E+00  0.00000000E+00
  0.00000000E+00  0.00000000E+00  0.00000000E+00
  0.00000000E+00  0.00000000E+00  0.00000000E+00
  0.00000000E+00  0.00000000E+00  0.00000000E+00
  0.00000000E+00  0.00000000E+00  0.00000000E+00
  0.00000000E+00  0.00000000E+00  0.00000000E+00
  0.00000000E+00  0.00000000E+00  0.00000000E+00
  0.00000000E+00  0.00000000E+00  0.00000000E+00
  0.00000000E+00  0.00000000E+00  0.00000000E+00
  0.00000000E+00  0.00000000E+00  0.00000000E+00
  0.00000000E+00  0.00000000E+00  0.00000000E+00
  0.00000000E+00  0.00000000E+00  0.00000000E+00
  0.00000000E+00  0.00000000E+00  0.00000000E+00
  0.00000000E+00  0.00000000E+00  0.00000000E+00
  0.00000000E+00  0.00000000E+00  0.00000000E+00
  0.00000000E+00  0.00000000E+00  0.00000000E+00
  0.00000000E+00  0.00000000E+00  0.00000000E+00
  0.00000000E+00  0.00000000E+00  0.00000000E+00
  0.00000000E+00  0.00000000E+00  0.00000000E+00
  0.00000000E+00  0.00000000E+00  0.00000000E+00
  0.00000000E+00  0.00000000E+00  0.00000000E+00
  0.00000000E+00  0.00000000E+00  0.00000000E+00
  0.00000000E+00  0.00000000E+00  0.00000000E+00
  0.00000000E+00  0.00000000E+00  0.00000000E+00
  0.00000000E+00  0.00000000E+00  0.00000000E+00
