H1 W18 N36
1.0
   8.8666231500000006    0.0000000000000000   -0.0028193100000000
  -4.4188929300000002    7.6922702100000002    0.0003114900000000
   0.0000000000000000    0.0000000000000000   21.1017816499999995
W N H
18 36 1
direct
   0.1307833400000000    0.0120622300000000    0.5948316299999999 W
   0.1269600300000000    0.3427778700000000    0.5928111100000000 W
   0.1307997000000000    0.6773351100000000    0.5947893700000000 W
   0.4644312100000000    0.0115343800000000    0.5944078000000000 W
   0.4652250400000000    0.3428837600000000    0.5928516600000000 W
   0.4652499700000000    0.6810218500000000    0.5928538300000000 W
   0.7965387200000000    0.0115934100000000    0.5943701900000000 W
   0.7965332200000000    0.3436016500000000    0.5944137400000000 W
   0.7959651800000000    0.6773149200000000    0.5948372600000000 W
   0.1298997600000000    0.0106122900000000    0.4053785700000000 W
   0.1299353600000000    0.3443600200000000    0.4055062200000000 W
   0.1298509700000000    0.6780058000000000    0.4053770500000000 W
   0.4632311300000000    0.0110121000000000    0.4050398400000000 W
   0.4635680400000000    0.3443734400000000    0.4055479200000000 W
   0.4635365600000000    0.6779147100000000    0.4055199800000000 W
   0.7968879200000000    0.0110055900000000    0.4050477000000000 W
   0.7968712999999999    0.3446162100000000    0.4050505700000000 W
   0.7972306400000000    0.6779778200000000    0.4053929500000000 W
   0.0184162100000000    0.1215619200000000    0.4665181000000000 N
   0.0184010500000000    0.4556460400000000    0.4665164000000000 N
   0.0190128600000000    0.7889072300000000    0.4669932000000000 N
   0.3523421100000000    0.1216555000000000    0.4665354500000000 N
   0.3523143400000000    0.4555926100000000    0.4674926500000000 N
   0.3523548600000000    0.7895381800000000    0.4665231800000000 N
   0.6856531200000000    0.1222344000000000    0.4664400200000000 N
   0.6863336300000000    0.4556177600000000    0.4665454800000000 N
   0.6863807500000000    0.7895854400000000    0.4665343900000000 N
   0.0183869500000000    0.1216334400000000    0.5327806400000000 N
   0.0183957000000000    0.4555226300000000    0.5327791300000000 N
   0.0190592600000000    0.7889019100000000    0.5334465600000000 N
   0.3525397700000000    0.1217383200000000    0.5328044500000000 N
   0.3523429000000000    0.4555704800000000    0.5344568500000000 N
   0.3525626200000000    0.7896065400000000    0.5327937100000000 N
   0.6856703300000000    0.1222318700000000    0.5328063900000000 N
   0.6862847500000000    0.4554720000000000    0.5328146600000000 N
   0.6863427000000000    0.7896540300000000    0.5328035900000000 N
   0.0191702100000000    0.1228135600000000    0.3547782800000000 N
   0.0191401500000000    0.4552321200000000    0.3547739000000000 N
   0.0189491500000000    0.7889162600000000    0.3546385100000000 N
   0.3527070800000000    0.1228916400000000    0.3547861300000000 N
   0.3522926100000000    0.4556214700000000    0.3555239600000000 N
   0.3527357100000000    0.7887634000000000    0.3547886100000000 N
   0.6856544500000000    0.1222604000000000    0.3544799700000000 N
   0.6850872800000000    0.4552544100000000    0.3547841300000000 N
   0.6851093500000000    0.7887958500000000    0.3547953500000000 N
   0.0198292300000000    0.1230854400000000    0.6450830400000001 N
   0.0198420500000000    0.4556657000000000    0.6450896900000000 N
   0.0191234900000000    0.7889871100000000    0.6453327800000001 N
   0.3525553000000000    0.1231629400000000    0.6451123300000000 N
   0.3523725300000000    0.4556068300000000    0.6487757700000000 N
   0.3525551200000000    0.7882907600000000    0.6451110000000000 N
   0.6857558000000000    0.1223214700000000    0.6453234900000000 N
   0.6850631100000000    0.4556188800000000    0.6451131000000000 N
   0.6850728500000000    0.7883835900000000    0.6450999800000000 N
   0.3521239500000000    0.4555609900000000    0.6972199400000000 H
