H1 W36 N12
1.0
   8.2911786000000003    0.0000000000000000    0.0417049200000000
  -0.0029166900000000    8.5388672400000001   -0.0752026800000000
   0.0000000000000000    0.0000000000000000   22.1021973100000011
W N H
36 12 1
direct
   0.3754909800000000    0.2370187300000000    0.3511013200000000 W
   0.3754919900000000    0.5702610600000000    0.3510521000000000 W
   0.3755018800000000    0.9036332400000000    0.3508918300000000 W
   0.8754890700000000    0.2369104200000000    0.3512978100000000 W
   0.8754922500000000    0.5705035500000000    0.3511359200000000 W
   0.8754972300000000    0.9045240600000000    0.3509125300000000 W
   0.3738689100000000    0.1793119800000000    0.4699168100000000 W
   0.3738716500000000    0.5120700400000000    0.4695769200000000 W
   0.3738766800000000    0.8458143400000000    0.4696932900000000 W
   0.8738671300000000    0.1788175000000000    0.4698595700000000 W
   0.8738838700000000    0.5119613600000000    0.4692383500000000 W
   0.8738837400000000    0.8455841800000000    0.4691525200000000 W
   0.3722936000000000    0.0794016900000000    0.5899664300000000 W
   0.3722619600000000    0.4113942100000000    0.5901424199999999 W
   0.3722793900000000    0.7475564300000000    0.5898033499999999 W
   0.8722875000000000    0.0792713100000000    0.5885298200000000 W
   0.8722954700000000    0.4106963300000000    0.5879507300000000 W
   0.8723081100000000    0.7491733100000000    0.5873665400000000 W
   0.1202763700000000    0.2370651500000000    0.6492255600000000 W
   0.1131213700000000    0.5709101300000000    0.6466290099999999 W
   0.1199051400000000    0.9040431500000000    0.6495107200000000 W
   0.6226267800000000    0.2370814400000000    0.6492370700000000 W
   0.6298598900000000    0.5708782200000000    0.6466305700000000 W
   0.6230213400000000    0.9040385200000000    0.6495186300000000 W
   0.1241392300000000    0.2952913800000000    0.5304778500000000 W
   0.1236128300000000    0.6281147400000000    0.5295863900000000 W
   0.1237303700000000    0.9617597900000000    0.5305172200000000 W
   0.6219859400000000    0.2952787300000000    0.5304689200000000 W
   0.6225422200000000    0.6281119800000000    0.5295879700000000 W
   0.6224111400000000    0.9617351000000000    0.5305108700000000 W
   0.1250337800000000    0.0618949000000000    0.4111593800000000 W
   0.1248304900000000    0.3950274400000000    0.4110515500000000 W
   0.1249398700000000    0.7288909400000000    0.4108173600000000 W
   0.6242672100000000    0.0618964200000000    0.4111590700000000 W
   0.6244737200000000    0.3950244300000000    0.4110470700000000 W
   0.6243919500000000    0.7288848500000000    0.4108177900000000 W
   0.1256486800000000    0.2290651100000000    0.3399580900000000 N
   0.1256154800000000    0.5622523600000000    0.3398222300000000 N
   0.1256405300000000    0.8961730200000000    0.3397023100000000 N
   0.6255929099999999    0.2290630800000000    0.3399549200000000 N
   0.6256367500000000    0.5622549500000000    0.3398221100000000 N
   0.6256142099999999    0.8961701300000000    0.3397016700000000 N
   0.3713051000000000    0.2456829100000000    0.6610371300000000 N
   0.3712864600000000    0.5792821600000000    0.6619835500000000 N
   0.3713182800000000    0.9117886600000000    0.6609205900000000 N
   0.8713217200000000    0.2446096200000000    0.6602153200000000 N
   0.8713322999999999    0.5794796400000000    0.6587112400000000 N
   0.8713288400000000    0.9117822400000000    0.6601832500000000 N
   0.3706156000000000    0.5850171300000000    0.7088246100000000 H
