H1 W36 N12
1.0
   8.2911786000000003    0.0000000000000000    0.0417049200000000
  -0.0029166900000000    8.5388672400000001   -0.0752026800000000
   0.0000000000000000    0.0000000000000000   22.1021973100000011
W N H
36 12 1
direct
   0.3732234800000000    0.2401739700000000    0.3510304900000000 W
   0.3729855600000000    0.5742186500000001    0.3508473000000000 W
   0.3730331800000000    0.9065931900000000    0.3511483600000000 W
   0.8731825900000000    0.2399942100000000    0.3509789000000000 W
   0.8730353700000000    0.5733493600000000    0.3508100800000000 W
   0.8730085000000000    0.9066548500000000    0.3509698000000000 W
   0.3713510900000000    0.1817540000000000    0.4691066800000000 W
   0.3713895800000000    0.5155236800000000    0.4690726400000000 W
   0.3714359900000000    0.8486897900000000    0.4697182300000000 W
   0.8714584399999999    0.1818732100000000    0.4694178600000000 W
   0.8713339800000000    0.5157020800000000    0.4695261100000000 W
   0.8713392599999999    0.8492265500000000    0.4697826100000000 W
   0.3696504800000000    0.0807174300000000    0.5877491400000000 W
   0.3698568700000000    0.4195085100000000    0.5872239299999999 W
   0.3697434300000000    0.7493068600000000    0.5883930500000000 W
   0.8698459400000000    0.0814900100000000    0.5899865800000000 W
   0.8696114100000000    0.4176661400000000    0.5894865900000000 W
   0.8697027100000000    0.7494610900000001    0.5898113500000000 W
   0.1272164100000000    0.2413525000000000    0.6464724300000000 W
   0.1203863100000000    0.5740965000000000    0.6493354900000000 W
   0.1199458400000000    0.9072118700000000    0.6490399300000000 W
   0.6104505200000000    0.2410126900000000    0.6462164000000000 W
   0.6173506600000001    0.5741217000000000    0.6493895200000001 W
   0.6178020400000001    0.9072554000000000    0.6490421800000000 W
   0.1200727900000000    0.2981580100000000    0.5294070000000000 W
   0.1199982500000000    0.6316657100000000    0.5303614300000000 W
   0.1195836100000000    0.9651538300000000    0.5303100900000000 W
   0.6210668499999999    0.2979797300000000    0.5293091800000000 W
   0.6212297400000000    0.6317932900000000    0.5303979800000000 W
   0.6216474800000000    0.9653061500000000    0.5303662099999999 W
   0.1220865200000000    0.0646221900000000    0.4109229500000000 W
   0.1220900100000000    0.3985834400000000    0.4107714400000000 W
   0.1218002200000000    0.7316646600000000    0.4110528400000000 W
   0.6223898900000000    0.0646776500000000    0.4109491800000000 W
   0.6224051600000000    0.3985608400000000    0.4107210500000000 W
   0.6225419500000000    0.7316528900000000    0.4110187300000000 W
   0.1232680300000000    0.2320258600000000    0.3397484200000000 N
   0.1230872400000000    0.5657902400000000    0.3396383300000000 N
   0.1230904100000000    0.8986758400000000    0.3398363800000000 N
   0.6232975400000000    0.2319111900000000    0.3397336100000000 N
   0.6231448600000000    0.5658817800000000    0.3396100600000000 N
   0.6231723400000000    0.8987183300000000    0.3397936500000000 N
   0.3688369600000000    0.2498941800000000    0.6584565800000000 N
   0.3687676300000000    0.5818979200000000    0.6601290100000000 N
   0.3687502500000000    0.9147258900000000    0.6600085700000000 N
   0.8689094500000000    0.2497449500000000    0.6616357400000000 N
   0.8686199300000000    0.5817025900000000    0.6606705800000000 N
   0.8687499000000000    0.9158343000000000    0.6608462500000000 N
   0.8652486100000000    0.2583543000000000    0.7084356200000000 H
