H1 W36 N12
1.0
   8.2911786000000003    0.0000000000000000    0.0417049200000000
  -0.0029166900000000    8.5388672400000001   -0.0752026800000000
   0.0000000000000000    0.0000000000000000   22.1021973100000011
W N H
36 12 1
direct
   0.3733808100000000    0.2412722000000000    0.3513695500000000 W
   0.3729443600000000    0.5751217900000000    0.3513943400000000 W
   0.3728229600000000    0.9081173700000000    0.3512761100000000 W
   0.8728650500000000    0.2411956300000000    0.3513646400000000 W
   0.8732629600000000    0.5751533300000000    0.3513849700000000 W
   0.8730550800000000    0.9081102500000000    0.3512960000000000 W
   0.3707238500000000    0.1823426600000000    0.4694061000000000 W
   0.3714071900000000    0.5155682900000000    0.4695221400000000 W
   0.3715919900000000    0.8491683100000000    0.4695519800000000 W
   0.8722827700000000    0.1823740700000000    0.4693873700000000 W
   0.8715623200000000    0.5155653200000000    0.4695284200000000 W
   0.8712254500000000    0.8491467300000000    0.4695633000000000 W
   0.3681041700000000    0.0829412000000000    0.5885413900000001 W
   0.3714359400000000    0.4172237500000000    0.5884505000000000 W
   0.3699701500000000    0.7486865500000000    0.5888911400000000 W
   0.8712304400000001    0.0827983500000000    0.5885766400000000 W
   0.8680219200000000    0.4171118200000000    0.5885081000000000 W
   0.8693150900000000    0.7485562600000000    0.5889164900000000 W
   0.1188611800000000    0.2419132100000000    0.6482723400000000 W
   0.1187587500000000    0.5741075400000000    0.6490179100000000 W
   0.1186040500000000    0.9070514400000000    0.6485162500000000 W
   0.6187249200000000    0.2398988400000000    0.6477924800000000 W
   0.6187002300000000    0.5772207800000000    0.6509253500000000 W
   0.6186329800000000    0.9050850700000000    0.6484844000000000 W
   0.1206170600000000    0.2993674400000000    0.5303792400000000 W
   0.1205797200000000    0.6317547200000000    0.5303141800000000 W
   0.1205445400000000    0.9645275900000000    0.5300524700000000 W
   0.6205827900000001    0.2966715100000000    0.5288334600000000 W
   0.6204899000000000    0.6322860400000000    0.5307791800000000 W
   0.6204826700000000    0.9667586600000000    0.5308229400000000 W
   0.1223097300000000    0.0654993500000000    0.4108380100000000 W
   0.1223010100000000    0.3996513900000000    0.4110591800000000 W
   0.1222972400000000    0.7326314100000000    0.4112037100000000 W
   0.6222732900000000    0.0654472300000000    0.4111514800000000 W
   0.6223324600000000    0.3997843200000000    0.4110575500000000 W
   0.6222096900000000    0.7329778100000000    0.4115927600000000 W
   0.1232742500000000    0.2332235300000000    0.3400436600000000 N
   0.1232107300000000    0.5663994900000000    0.3399045600000000 N
   0.1229713600000000    0.8997280800000000    0.3397678800000000 N
   0.6232899900000000    0.2335467600000000    0.3400172300000000 N
   0.6232983600000001    0.5674217800000000    0.3401396800000000 N
   0.6230528700000000    0.8997874400000000    0.3401438600000000 N
   0.3675450700000000    0.2485828000000000    0.6589239900000000 N
   0.3670831900000000    0.5828785300000000    0.6602594899999999 N
   0.3681703300000000    0.9150856500000000    0.6599094800000000 N
   0.8695961400000000    0.2484725400000000    0.6589868800000001 N
   0.8699916200000000    0.5828121300000000    0.6602932300000000 N
   0.8686241400000000    0.9148984700000000    0.6599190000000000 N
   0.6178170300000000    0.4026712100000000    0.7044327500000001 H
