H1 W36 N12
1.0
   8.2911786000000003    0.0000000000000000    0.0417049200000000
  -0.0029166900000000    8.5388672400000001   -0.0752026800000000
   0.0000000000000000    0.0000000000000000   22.1021973100000011
W N H
36 12 1
direct
   0.3757201100000000    0.2415288600000000    0.3513350800000000 W
   0.3754200800000000    0.5753667400000000    0.3512665300000000 W
   0.3753841200000000    0.9084132300000000    0.3512126800000000 W
   0.8752527200000000    0.2415289200000000    0.3513339000000000 W
   0.8755579500000000    0.5753697700000000    0.3512678600000000 W
   0.8755761100000000    0.9084173800000001    0.3512104400000000 W
   0.3732016200000000    0.1822713200000000    0.4692882800000000 W
   0.3739267600000000    0.5155015600000000    0.4693545300000000 W
   0.3741355900000000    0.8490577400000000    0.4694245000000000 W
   0.8745487900000000    0.1822656300000000    0.4692837500000000 W
   0.8738377500000000    0.5155035500000000    0.4693605500000000 W
   0.8736059400000000    0.8490656900000000    0.4694263600000000 W
   0.3706063800000000    0.0827014800000000    0.5884601300000000 W
   0.3738920200000000    0.4168928600000000    0.5882247700000000 W
   0.3725590900000000    0.7482946800000000    0.5887734300000000 W
   0.8739564800000000    0.0827031600000000    0.5884679400000000 W
   0.8706976900000000    0.4168965500000000    0.5882374600000000 W
   0.8720255400000000    0.7483021200000000    0.5887746500000000 W
   0.1214667400000000    0.2415909400000000    0.6480914700000000 W
   0.1214840900000000    0.5737667000000000    0.6487780800000000 W
   0.1214690100000000    0.9068278900000000    0.6483968800000000 W
   0.6214570900000000    0.2394246000000000    0.6476074100000000 W
   0.6214400200000000    0.5765457700000000    0.6507879500000000 W
   0.6214725300000000    0.9049229000000000    0.6483085700000000 W
   0.1230553400000000    0.2991434800000000    0.5301998100000000 W
   0.1230622200000000    0.6315261900000000    0.5301403400000000 W
   0.1230542100000000    0.9644232900000000    0.5299707200000000 W
   0.6230843600000000    0.2964594400000000    0.5286645600000000 W
   0.6230603800000000    0.6319681900000000    0.5306397600000000 W
   0.6230632200000000    0.9665272300000000    0.5306755100000000 W
   0.1246504500000000    0.0655515100000000    0.4107870400000000 W
   0.1246454800000000    0.3998439600000000    0.4109282200000000 W
   0.1246392600000000    0.7327531600000000    0.4110271200000000 W
   0.6246414800000000    0.0655156900000000    0.4111080200000000 W
   0.6246525700000000    0.3999362500000000    0.4108889700000000 W
   0.6246383599999999    0.7331872699999999    0.4114385900000000 W
   0.1256189900000000    0.2335727000000000    0.3400113800000000 N
   0.1256194500000000    0.5666810400000000    0.3397893700000000 N
   0.1256215900000000    0.8999811200000000    0.3396600400000000 N
   0.6256193100000000    0.2337044700000000    0.3399692300000000 N
   0.6256235600000000    0.5678245400000000    0.3399800700000000 N
   0.6256145000000000    0.9002149699999999    0.3400531400000000 N
   0.3702981300000000    0.2483995800000000    0.6587894600000000 N
   0.3697916300000000    0.5822047700000000    0.6600256200000000 N
   0.3710142400000000    0.9147799500000000    0.6598282300000000 N
   0.8723542399999999    0.2484025700000000    0.6587984000000000 N
   0.8728705600000000    0.5822215200000000    0.6600292600000000 N
   0.8716545200000000    0.9147870400000000    0.6598332500000000 N
   0.6207321099999999    0.4019712800000000    0.7042966700000000 H
