W4 N2
1.0
   2.9378354700000000    0.0000000000000000   -0.2291154800000000
  -0.0025241000000000    2.9425093400000000   -0.1613530600000000
   0.0000000000000000    0.0000000000000000   21.3095355700000013
W N
4 2
direct
   0.4229635300000000    0.4464539600000000    0.4577264400000000 W
   0.5193284500000001    0.5140175400000000    0.6320858100000000 W
   0.8717180100000000    0.9104822600000000    0.3679132700000000 W
   0.9701564900000000    0.9794758200000000    0.5422702500000000 W
   0.3632884100000000    0.4045736300000000    0.3528942700000000 N
   0.0277111100000000    0.0198507700000000    0.6471099600000000 N
