H1 W18 N27
1.0
   8.3378969100000013    0.0000000000000000   -0.6339652200000000
  -0.0216028500000000    8.3473862400000005   -0.3007192200000000
   0.0000000000000000    0.0000000000000000   19.4415438899999984
W N H
18 27 1
direct
   0.0055338133333333    0.0013378133333333    0.5785856000000000 W
   0.0055338133333333    0.3346711466666666    0.5785856000000000 W
   0.0055338133333333    0.6680044800000000    0.5785856000000000 W
   0.3388671466666666    0.0013378133333333    0.5785855999999999 W
   0.3388671466666666    0.3346711466666666    0.5785856000000000 W
   0.3388671466666666    0.6680044800000000    0.5785856000000000 W
   0.6722004800000000    0.0013378133333333    0.5785856000000001 W
   0.6722004799999999    0.3346711466666666    0.5785856000000000 W
   0.6722004799999999    0.6680044800000000    0.5785856000000000 W
   0.1442859366666666    0.1551350100000000    0.4214137100000001 W
   0.1442859366666666    0.4884683433333333    0.4214137100000001 W
   0.1442859366666666    0.8218016766666666    0.4214137100000001 W
   0.4776192699999999    0.1551350100000000    0.4214137100000001 W
   0.4776192699999999    0.4884683433333333    0.4214137100000001 W
   0.4776192699999999    0.8218016766666666    0.4214137100000000 W
   0.8109526033333332    0.1551350100000000    0.4214137100000001 W
   0.8109526033333333    0.4884683433333333    0.4214137100000001 W
   0.8109526033333332    0.8218016766666666    0.4214137100000001 W
   0.3041842166666666    0.3186072700000001    0.3829281300000000 N
   0.3041842166666666    0.6519406033333334    0.3829281300000000 N
   0.3041842166666666    0.9852739366666666    0.3829281300000000 N
   0.6375175500000000    0.3186072700000001    0.3829281300000000 N
   0.6375175499999998    0.6519406033333334    0.3829281300000000 N
   0.6375175499999998    0.9852739366666666    0.3829281300000000 N
   0.9708508833333331    0.3186072700000001    0.3829281300000000 N
   0.9708508833333331    0.6519406033333334    0.3829281300000000 N
   0.9708508833333331    0.9852739366666666    0.3829281300000000 N
   0.1789931766666666    0.1711746133333333    0.6170686000000001 N
   0.1789931766666666    0.5045079466666667    0.6170686000000001 N
   0.1789931766666666    0.8378412800000000    0.6170686000000001 N
   0.5123265100000000    0.1711746133333333    0.6170686000000000 N
   0.5123265100000000    0.5045079466666667    0.6170686000000000 N
   0.5123265099999998    0.8378412800000000    0.6170686000000001 N
   0.8456598433333331    0.1711746133333333    0.6170686000000001 N
   0.8456598433333332    0.5045079466666667    0.6170686000000001 N
   0.8456598433333332    0.8378412800000000    0.6170686000000000 N
   0.1583201866666666    0.3283252900000000    0.5000039600000000 N
   0.1583201866666666    0.6616586233333334    0.5000039600000000 N
   0.1583201866666666    0.9949919566666667    0.5000039600000000 N
   0.4916535200000000    0.3283252900000000    0.5000039600000000 N
   0.4916535199999999    0.6616586233333334    0.5000039600000000 N
   0.4916535199999999    0.9949919566666667    0.5000039600000000 N
   0.8249868533333332    0.3283252900000000    0.5000039600000000 N
   0.8249868533333332    0.6616586233333334    0.5000039600000000 N
   0.8249868533333332    0.9949919566666667    0.5000039600000000 N
   0.2946739642417693    0.1733852442714128    0.6430316137507487 H
