H1 W36 N18
1.0
   8.8135064100000005    0.0000000000000000   -0.6873464400000000
  -0.0075723000000000    8.8275280200000008   -0.4840591800000000
   0.0000000000000000    0.0000000000000000   21.3095355700000013
W N H
36 18 1
direct
   0.1409209500000000    0.1508605400000000    0.4590985900000000 W
   0.1405325400000000    0.4842452800000000    0.4570690400000000 W
   0.1405347800000000    0.8166984900000001    0.4570753100000000 W
   0.4742742600000000    0.1505503300000000    0.4569653500000000 W
   0.4740089700000000    0.4839352400000000    0.4565979400000000 W
   0.4740854000000000    0.8167521100000000    0.4565990500000000 W
   0.8067643000000000    0.1505500300000000    0.4569876800000000 W
   0.8068798000000000    0.4839726700000000    0.4566069300000000 W
   0.8068646700000000    0.8167781200000001    0.4566148200000000 W
   0.1735240100000000    0.1739082800000000    0.6325726200000000 W
   0.1733050700000000    0.5065139000000000    0.6316090800000000 W
   0.1733525500000000    0.8408183700000000    0.6315912800000000 W
   0.5062292400000000    0.1737352300000000    0.6315533600000000 W
   0.5077044200000000    0.5081902000000000    0.6322428300000000 W
   0.5074771100000000    0.8397147800000000    0.6321050800000000 W
   0.8403288000000000    0.1737852100000000    0.6315632100000000 W
   0.8391087500000000    0.5081564000000000    0.6322652900000000 W
   0.8391722900000000    0.8396366700000000    0.6321440900000000 W
   0.2900143900000000    0.3046806800000000    0.3674378200000000 W
   0.2907089200000000    0.6382877000000000    0.3670445800000000 W
   0.2901466600000000    0.9720159700000000    0.3675317800000000 W
   0.6237221200000000    0.3053294500000000    0.3669913200000000 W
   0.6236216900000000    0.6382300200000000    0.3665983200000000 W
   0.6236911100000000    0.9713857200000000    0.3670148800000000 W
   0.9575277100000000    0.3046899900000000    0.3674525300000000 W
   0.9567458100000000    0.6382678700000000    0.3670451100000000 W
   0.9574604000000000    0.9720247100000000    0.3675327400000000 W
   0.3248490000000000    0.3302373900000000    0.5427262000000000 W
   0.3235118100000000    0.6619010600000000    0.5420679300000000 W
   0.3247877700000000    0.9937187000000000    0.5425280200000000 W
   0.6564664500000000    0.3289854700000000    0.5420825400000000 W
   0.6564304800000000    0.6618068900000000    0.5418392900000000 W
   0.6564724800000000    0.9947963100000000    0.5419343300000000 W
   0.9882937300000000    0.3302685100000000    0.5426853100000000 W
   0.9894069400000000    0.6619351900000000    0.5420779000000000 W
   0.9883591100000000    0.9937600800000000    0.5425632900000000 W
   0.1213224700000000    0.1365848000000000    0.3544500000000000 N
   0.1210590300000000    0.4700368300000000    0.3528826400000000 N
   0.1210570000000000    0.8028380300000000    0.3529857700000000 N
   0.4546306600000000    0.1364974500000000    0.3528357900000000 N
   0.4538585600000000    0.4692384700000000    0.3523112000000000 N
   0.4538886300000000    0.8034081500000000    0.3524057100000000 N
   0.7874604200000000    0.1364618800000000    0.3528373200000000 N
   0.7880502800000000    0.4692699800000000    0.3523094000000000 N
   0.7880806400000000    0.8034142500000000    0.3524053200000000 N
   0.0073022700000000    0.0070624000000000    0.6452499200000000 N
   0.0073079400000000    0.3440523600000000    0.6454413000000000 N
   0.0098224700000000    0.6757075600000000    0.6462971100000000 N
   0.3442965500000000    0.0071198400000000    0.6451562900000000 N
   0.3444356600000000    0.3441113800000000    0.6454542700000000 N
   0.3422069700000000    0.6756661500000000    0.6462609800000000 N
   0.6760060400000000    0.0093923900000000    0.6460988100000000 N
   0.6760439400000000    0.3420885200000000    0.6462712000000000 N
   0.6761510200000000    0.6759126300000000    0.6470101100000000 N
   0.1890245400000000    0.1845244200000000    0.7142144700000000 H
