H1 W36 N18
1.0
   8.8135064100000005    0.0000000000000000   -0.6873464400000000
  -0.0075723000000000    8.8275280200000008   -0.4840591800000000
   0.0000000000000000    0.0000000000000000   21.3095355700000013
W N H
36 18 1
direct
   0.1410844100000000    0.1488292300000000    0.4596142600000000 W
   0.1407092300000000    0.4821786700000000    0.4575192300000000 W
   0.1406858200000000    0.8148041300000000    0.4574787200000000 W
   0.4743045000000000    0.1485570300000000    0.4575251200000000 W
   0.4741144000000000    0.4820049800000000    0.4572060800000000 W
   0.4741510900000000    0.8148448000000000    0.4571824800000000 W
   0.8069144700000001    0.1485305800000000    0.4574714000000000 W
   0.8069621200000000    0.4820322500000000    0.4571773900000000 W
   0.8069906800000000    0.8148676900000000    0.4571463300000000 W
   0.1731313100000000    0.1713439600000000    0.6330401700000000 W
   0.1731214300000000    0.5041724700000000    0.6321197000000000 W
   0.1731193400000000    0.8385382700000000    0.6320214100000000 W
   0.5059345600000000    0.1713879300000000    0.6321371099999999 W
   0.5074688900000000    0.5057059900000000    0.6327043400000000 W
   0.5075632100000000    0.8370653000000000    0.6326101900000000 W
   0.8402844200000000    0.1713711100000000    0.6320117900000000 W
   0.8388042300000000    0.5057854500000000    0.6325826400000000 W
   0.8387459800000000    0.8369497800000000    0.6325349900000000 W
   0.2902125000000000    0.3031627600000000    0.3680347800000000 W
   0.2907762400000000    0.6368253000000000    0.3675068500000000 W
   0.2902345000000000    0.9705515100000000    0.3680540200000000 W
   0.6238165100000000    0.3037718000000000    0.3675047700000000 W
   0.6237053299999999    0.6367187200000000    0.3670534800000000 W
   0.6237704700000000    0.9698973900000000    0.3675008000000000 W
   0.9576075200000000    0.3031858500000000    0.3680604600000000 W
   0.9569135500000000    0.6367745600000000    0.3674985700000000 W
   0.9576386300000000    0.9706145200000000    0.3680534400000000 W
   0.3247981000000000    0.3278786500000000    0.5433055600000000 W
   0.3234040100000000    0.6595575500000000    0.5425486300000000 W
   0.3248671000000000    0.9914838800000000    0.5431666500000000 W
   0.6564206200000000    0.3265114100000000    0.5425306900000000 W
   0.6563765400000000    0.6595180200000000    0.5422993400000000 W
   0.6564383900000000    0.9926608300000000    0.5424320800000000 W
   0.9883560700000000    0.3279350100000000    0.5431306800000000 W
   0.9895523400000000    0.6595568500000000    0.5424150700000000 W
   0.9883728300000000    0.9914633000000000    0.5430489300000000 W
   0.1214473700000000    0.1351362000000000    0.3547108600000000 N
   0.1211925300000000    0.4684858100000000    0.3533545800000000 N
   0.1211620500000000    0.8013969700000000    0.3533242000000000 N
   0.4547207800000000    0.1349627300000000    0.3533557000000000 N
   0.4540505300000000    0.4678586900000000    0.3529687100000000 N
   0.4540718600000000    0.8019262800000000    0.3529332000000000 N
   0.7876069800000000    0.1349537400000000    0.3533250700000000 N
   0.7881280400000000    0.4678778900000000    0.3529340500000000 N
   0.7881303700000000    0.8019253700000000    0.3529279300000000 N
   0.0069752300000000    0.0044680500000000    0.6457198400000000 N
   0.0071079000000000    0.3417215600000000    0.6458333400000000 N
   0.0094785500000000    0.6732794000000000    0.6465577300000001 N
   0.3442313800000000    0.0046366800000000    0.6459004400000000 N
   0.3441742600000000    0.3416477600000000    0.6461479100000000 N
   0.3421598500000000    0.6732981500000000    0.6467577200000000 N
   0.6758594000000000    0.0069161500000000    0.6465816800000000 N
   0.6758753100000000    0.3396024000000000    0.6467311900000000 N
   0.6759970700000000    0.6733739000000000    0.6478556900000000 N
   0.1876499200000000    0.1815183400000000    0.7146432400000000 H
