H1 W36 N18
1.0
   8.8135064100000005    0.0000000000000000   -0.6873464400000000
  -0.0075723000000000    8.8275280200000008   -0.4840591800000000
   0.0000000000000000    0.0000000000000000   21.3095355700000013
W N H
36 18 1
direct
   0.1406043700000000    0.1461172000000000    0.4572415600000000 W
   0.1409492500000000    0.4799764400000000    0.4592614700000000 W
   0.1405635800000000    0.8135829900000000    0.4572136900000000 W
   0.4740844900000000    0.1462705500000000    0.4567426800000000 W
   0.4743038600000000    0.4796885100000000    0.4571488200000000 W
   0.4740988400000000    0.8134823700000000    0.4567723700000000 W
   0.8069494600000000    0.1463002200000000    0.4567370700000000 W
   0.8068383800000000    0.4796748300000000    0.4571418200000000 W
   0.8068891300000000    0.8134841800000000    0.4567713600000000 W
   0.1732326600000000    0.1696795600000000    0.6317077600000000 W
   0.1735002900000000    0.5025918700000001    0.6326493300000000 W
   0.1732264800000000    0.8353482500000000    0.6317395400000000 W
   0.5075191400000000    0.1682684600000000    0.6323560400000000 W
   0.5061542800000000    0.5023279300000000    0.6316710900000000 W
   0.5075417900000000    0.8366918400000000    0.6322692900000000 W
   0.8391589200000000    0.1682362300000000    0.6323570800000000 W
   0.8403261300000000    0.5023101800000001    0.6316631700000001 W
   0.8392396200000000    0.8366240600000000    0.6322565600000000 W
   0.2900465300000000    0.3022086600000000    0.3676460800000000 W
   0.2902128500000000    0.6348491500000000    0.3677223100000000 W
   0.2906258300000000    0.9685100900000000    0.3671975300000000 W
   0.6236944000000000    0.3014686000000000    0.3671053400000000 W
   0.6237315900000000    0.6353223300000000    0.3671666500000000 W
   0.6236506800000000    0.9684504400000000    0.3667221500000000 W
   0.9575654600000000    0.3021835600000000    0.3676301800000000 W
   0.9574501399999999    0.6348249400000000    0.3677125200000000 W
   0.9568083600000000    0.9685041700000000    0.3671892400000000 W
   0.3248388700000000    0.3224928300000000    0.5428245800000000 W
   0.3247907200000000    0.6588937100000000    0.5427192600000000 W
   0.3234897300000000    0.9906622500000000    0.5422034999999999 W
   0.6564975300000000    0.3236199100000000    0.5422035300000000 W
   0.6564377800000000    0.6576283400000000    0.5420324000000000 W
   0.6564392100000001    0.9908247100000001    0.5418912000000000 W
   0.9884374800000000    0.3225514400000000    0.5428452600000000 W
   0.9883325500000000    0.6589250200000000    0.5426842200000001 W
   0.9894715900000000    0.9906963500000000    0.5422006800000000 W
   0.1210759700000000    0.1330291600000000    0.3530029700000000 N
   0.1213556000000000    0.4668985200000000    0.3545789900000000 N
   0.1210914100000000    0.8002202700000000    0.3531891600000000 N
   0.4538908300000000    0.1335490900000000    0.3524439400000000 N
   0.4546183200000000    0.4666007500000000    0.3529931600000000 N
   0.4539970900000000    0.7995805200000000    0.3525494600000000 N
   0.7880160400000000    0.1335788200000000    0.3524469600000000 N
   0.7874828500000000    0.4665916000000000    0.3529784600000000 N
   0.7879583200000000    0.7995469400000000    0.3525398200000000 N
   0.0097831900000000    0.0043761900000000    0.6464645800000000 N
   0.0073343300000000    0.3358507000000000    0.6456129400000000 N
   0.0073153800000000    0.6726774300000000    0.6452629300000000 N
   0.3422393000000000    0.0043883800000000    0.6464565100000000 N
   0.3443422800000000    0.3358466200000000    0.6455419999999999 N
   0.3442920700000000    0.6726793200000000    0.6453153300000000 N
   0.6761090700000000    0.0043495500000000    0.6470545900000000 N
   0.6760439700000000    0.3379578900000000    0.6464975900000000 N
   0.6759833900000000    0.6705952800000000    0.6462486000000000 N
   0.1889446600000000    0.5140329700000000    0.7142988800000000 H
