H1 W36 N18
1.0
   8.8135064100000005    0.0000000000000000   -0.6873464400000000
  -0.0075723000000000    8.8275280200000008   -0.4840591800000000
   0.0000000000000000    0.0000000000000000   21.3095355700000013
W N H
36 18 1
direct
   0.1440277700000000    0.1486975600000000    0.4589484700000000 W
   0.1437039300000000    0.4823363300000000    0.4571392400000000 W
   0.1436691900000000    0.8145490900000000    0.4571404200000000 W
   0.4772522300000000    0.1484626000000000    0.4569397900000000 W
   0.4770889200000000    0.4821629400000000    0.4567341100000000 W
   0.4771019900000000    0.8146466300000000    0.4567294200000000 W
   0.8095879300000000    0.1484267300000000    0.4568527300000000 W
   0.8097216200000000    0.4821630500000000    0.4567412600000000 W
   0.8097189299999999    0.8146851400000000    0.4567395300000000 W
   0.1762721300000000    0.1716022900000000    0.6321756200000000 W
   0.1763512700000000    0.5044802000000000    0.6316146400000000 W
   0.1763813800000000    0.8384646200000000    0.6316200199999999 W
   0.5091596500000000    0.1714104900000000    0.6317118600000000 W
   0.5106741299999999    0.5057014200000000    0.6323777400000000 W
   0.5106334500000000    0.8374218700000000    0.6323731700000000 W
   0.8432584500000000    0.1714540000000000    0.6313819100000000 W
   0.8422314300000000    0.5055108200000000    0.6322315900000000 W
   0.8422911500000000    0.8375343700000000    0.6322401500000000 W
   0.2932289800000000    0.3031392600000000    0.3674731800000000 W
   0.2936589800000000    0.6366777700000000    0.3670921800000000 W
   0.2931692400000000    0.9702466300000000    0.3674918200000000 W
   0.6267005200000000    0.3035983700000000    0.3670076000000000 W
   0.6266510000000000    0.6365543700000000    0.3666038200000000 W
   0.6266286200000000    0.9696661000000000    0.3670024200000000 W
   0.9604834300000000    0.3031405800000000    0.3675300800000000 W
   0.9597464100000000    0.6365949600000000    0.3670549200000000 W
   0.9605120800000000    0.9702614899999999    0.3675382700000000 W
   0.3278911300000000    0.3279413800000000    0.5426249000000000 W
   0.3266336600000000    0.6596768100000000    0.5423923400000000 W
   0.3279311200000000    0.9914299300000000    0.5425891800000000 W
   0.6593355100000000    0.3267754600000000    0.5420435000000000 W
   0.6594721500000000    0.6596603100000000    0.5421561700000000 W
   0.6593999500000000    0.9924703300000000    0.5420490400000000 W
   0.9912343200000000    0.3280521700000000    0.5423120700000000 W
   0.9924225600000000    0.6596677300000000    0.5422261800000000 W
   0.9913088400000000    0.9913897000000000    0.5423390400000000 W
   0.1243573500000000    0.1349637100000000    0.3542882600000000 N
   0.1240932700000000    0.4684384400000000    0.3529981700000000 N
   0.1240660900000000    0.8011107200000001    0.3530148300000000 N
   0.4576211900000000    0.1347403800000000    0.3527144500000000 N
   0.4569771900000000    0.4677803400000000    0.3524341100000000 N
   0.4569827600000000    0.8016414900000000    0.3524320100000000 N
   0.7905118799999999    0.1347503200000000    0.3528066100000000 N
   0.7910086200000001    0.4677057000000000    0.3524831900000000 N
   0.7910244600000000    0.8017314500000000    0.3524898800000000 N
   0.0103775100000000    0.0047671900000000    0.6448492600000000 N
   0.0104077200000000    0.3416232100000000    0.6447702199999999 N
   0.0127213900000000    0.6733967900000000    0.6463519599999999 N
   0.3472310000000000    0.0048177700000000    0.6452586000000000 N
   0.3473142200000000    0.3417076500000000    0.6453103300000000 N
   0.3455196100000000    0.6734754200000000    0.6468657700000000 N
   0.6790819800000000    0.0071096900000000    0.6462236000000000 N
   0.6790462600000000    0.3396247400000000    0.6462338399999999 N
   0.6793452100000000    0.6735352400000000    0.6474900400000000 N
   0.1905292400000000    0.1824499100000000    0.7137583700000000 H
