H1 W18 N36
1.0
   8.8666231500000006    0.0000000000000000   -0.0028193100000000
  -4.4188929300000002    7.6922702100000002    0.0003114900000000
   0.0000000000000000    0.0000000000000000   21.1017816499999995
W N H
18 36 1
direct
   0.1282529800000000    0.0115481800000000    0.5931419400000000 W
   0.1316962600000000    0.3462720000000000    0.5947893600000000 W
   0.1321433700000000    0.6815284600000000    0.5947694200000000 W
   0.4660731800000000    0.0115738000000000    0.5931485500000000 W
   0.4668739600000000    0.3509547200000000    0.5929635400000000 W
   0.4660524200000000    0.6805236500000000    0.5942786200000000 W
   0.7979325300000000    0.0131303900000000    0.5941777600000000 W
   0.7973778800000000    0.3462808100000000    0.5948177600000000 W
   0.7972057700000000    0.6805165900000000    0.5942524700000000 W
   0.1311488100000000    0.0123210800000000    0.4056645300000000 W
   0.1305110200000000    0.3459436600000000    0.4053760200000000 W
   0.1306250800000000    0.6788403300000000    0.4052521700000000 W
   0.4636502400000000    0.0123202700000000    0.4056830600000000 W
   0.4642533900000000    0.3460555300000000    0.4056659500000000 W
   0.4639921500000000    0.6788304200000000    0.4049920600000000 W
   0.7976973600000000    0.0129730300000000    0.4048652200000000 W
   0.7978912100000000    0.3459671400000000    0.4053821700000000 W
   0.7972597100000000    0.6788071300000000    0.4050014300000000 W
   0.0194363300000000    0.1235876700000000    0.4664705000000000 N
   0.0199115900000000    0.4573289500000000    0.4669003400000000 N
   0.0187757700000000    0.7898053400000000    0.4665068000000000 N
   0.3533397500000000    0.1241979700000000    0.4677925100000000 N
   0.3527832400000000    0.4575005100000000    0.4664921900000000 N
   0.3534591200000000    0.7898070200000000    0.4665103600000000 N
   0.6866123000000000    0.1236214500000000    0.4664826600000000 N
   0.6871528099999999    0.4574822500000000    0.4664990700000000 N
   0.6866806900000000    0.7909054100000000    0.4662287500000000 N
   0.0198322100000000    0.1242228800000000    0.5327820200000000 N
   0.0204426500000000    0.4582597800000000    0.5333524900000000 N
   0.0190955600000000    0.7903696099999999    0.5328027700000000 N
   0.3538241200000000    0.1250207900000000    0.5347486700000000 N
   0.3532364500000000    0.4584011300000000    0.5327838200000000 N
   0.3538301900000000    0.7903994000000000    0.5328069700000000 N
   0.6869577200000000    0.1242563900000000    0.5327980600000000 N
   0.6877558600000000    0.4583903200000000    0.5327893400000000 N
   0.6871330500000000    0.7917066000000000    0.5325711800000000 N
   0.0198183300000000    0.1224050500000000    0.3548234300000000 N
   0.0194555600000000    0.4566099200000000    0.3546836000000000 N
   0.0189629800000000    0.7901841400000000    0.3548478800000000 N
   0.3529700800000000    0.1236312900000000    0.3555937200000000 N
   0.3528717000000000    0.4561529300000000    0.3547701000000000 N
   0.3534597300000000    0.7901695900000000    0.3548440300000000 N
   0.6848732800000000    0.1224635700000000    0.3548312500000000 N
   0.6855456500000000    0.4561315800000000    0.3547781400000000 N
   0.6862802800000000    0.7902437000000000    0.3544427500000000 N
   0.0216557800000000    0.1253001300000000    0.6450739500000000 N
   0.0211640600000000    0.4596007200000000    0.6451325600000000 N
   0.0208730900000000    0.7924265500000000    0.6451208300000000 N
   0.3544988400000000    0.1262630700000000    0.6488703700000000 N
   0.3534421500000000    0.4580131100000000    0.6451048800000000 N
   0.3541828000000000    0.7924116900000000    0.6451382300000000 N
   0.6863405700000000    0.1253291000000000    0.6450851100000000 N
   0.6872313100000000    0.4580167900000000    0.6451111200000000 N
   0.6877388700000000    0.7928196800000000    0.6451372900000000 N
   0.3552673000000000    0.1278608100000000    0.6972751300000000 H
