H1 W27 N36
1.0
   8.5378185000000002    0.0000000000000000    0.0314463900000000
  -4.2205377899999998    7.7357082300000002   -0.6490793700000000
   0.0000000000000000    0.0000000000000000   22.9756335599999986
W N H
27 36 1
direct
   0.0969770200000000    0.0094215300000000    0.3738075200000000 W
   0.0969793200000000    0.3431428100000000    0.3743098300000000 W
   0.0965801600000000    0.6764998300000000    0.3748716300000000 W
   0.4293658700000000    0.0091249700000000    0.3738989800000000 W
   0.4296348200000000    0.3418263800000000    0.3736387200000000 W
   0.4292332600000000    0.6748073200000000    0.3727477400000000 W
   0.7622771400000000    0.0078702500000000    0.3727189500000000 W
   0.7632723300000001    0.3432467500000000    0.3741583000000000 W
   0.7624708700000000    0.6745217600000000    0.3727057200000000 W
   0.1272128000000000    0.0974669400000000    0.6259391300000000 W
   0.1258558500000000    0.3935325800000000    0.6254665200000000 W
   0.1265022200000000    0.7455034100000000    0.6356357800000000 W
   0.4795769800000000    0.1014549700000000    0.6277964700000001 W
   0.4653165000000000    0.4239810800000000    0.6280635200000000 W
   0.4866131800000000    0.7645148700000000    0.6262859500000000 W
   0.7988438900000000    0.0881051400000000    0.6220531000000000 W
   0.7762998900000000    0.3944019600000000    0.6256114400000000 W
   0.7845223400000000    0.7617087100000000    0.6263028000000000 W
   0.1117936800000000    0.0389880100000000    0.5007312100000000 W
   0.1199937300000000    0.3917342400000000    0.5010020200000000 W
   0.1128025400000000    0.7118673200000000    0.5037503400000000 W
   0.4415495600000000    0.0378502600000000    0.5006802700000000 W
   0.4482463600000000    0.3807416700000000    0.5008315400000000 W
   0.4447750000000000    0.7100383200000000    0.4997066700000000 W
   0.7779940500000000    0.0439966200000000    0.4985221100000000 W
   0.7849824800000000    0.3903281200000000    0.5007814800000000 W
   0.7798577000000000    0.7116562700000000    0.4996481900000000 W
   0.2493580000000000    0.3102736500000000    0.6825710800000000 N
   0.2449630400000000    0.6382389800000000    0.6677827800000000 N
   0.2415729300000000    0.9745284900000000    0.6681174500000000 N
   0.5658896600000000    0.3097130500000000    0.6798069200000000 N
   0.5696325500000000    0.6363885900000000    0.6773802300000000 N
   0.5689913599999999    0.9781834100000000    0.6739236199999999 N
   0.9159643300000000    0.3221924600000000    0.6744626200000000 N
   0.9027385200000000    0.6391517200000000    0.6686364400000000 N
   0.9169833700000000    0.9787290300000000    0.6737050200000000 N
   0.1982209100000000    0.2140129600000000    0.3250060200000000 N
   0.1988669700000000    0.5470478600000001    0.3251266200000000 N
   0.1992627400000000    0.8800223800000000    0.3249558900000000 N
   0.5346021700000000    0.2139620400000000    0.3249068200000000 N
   0.5325833200000000    0.5462445700000000    0.3238625500000000 N
   0.5333659500000000    0.8798731000000000    0.3240608300000000 N
   0.8666887900000000    0.2142273900000000    0.3257114100000000 N
   0.8668812800000000    0.5471773400000000    0.3249223300000000 N
   0.8657452200000000    0.8800252800000000    0.3242693500000000 N
   0.0075218000000000    0.1764993700000000    0.5588357700000000 N
   0.0097638500000000    0.5067062700000000    0.5636385699999999 N
   0.0087071900000000    0.8443653300000000    0.5635928100000001 N
   0.3437503500000000    0.1727124000000000    0.5609919900000000 N
   0.3483042000000000    0.5131502900000000    0.5627079000000000 N
   0.3450531200000000    0.8415837400000000    0.5627343200000000 N
   0.6763442400000000    0.1769515200000000    0.5599974100000000 N
   0.6777069900000000    0.5143309500000000    0.5630181100000000 N
   0.6807334100000000    0.8509142800000000    0.5608419500000000 N
   0.2167844200000000    0.2519744300000000    0.4386872500000000 N
   0.2177065400000000    0.5866723900000000    0.4384684300000000 N
   0.2154326200000000    0.9163554800000000    0.4378192400000000 N
   0.5512107600000000    0.2518127300000000    0.4383958100000000 N
   0.5490014400000000    0.5825853100000000    0.4366301000000000 N
   0.5492229800000000    0.9161041200000000    0.4369133600000000 N
   0.8860361800000000    0.2566527400000000    0.4400187400000000 N
   0.8835108400000000    0.5866207900000000    0.4382561800000000 N
   0.8831762500000000    0.9172917800000000    0.4373073900000000 N
   0.2600312400000000    0.3208404000000000    0.7271299800000000 H
