H1 W27 N36
1.0
   8.5378185000000002    0.0000000000000000    0.0314463900000000
  -4.2205377899999998    7.7357082300000002   -0.6490793700000000
   0.0000000000000000    0.0000000000000000   22.9756335599999986
W N H
27 36 1
direct
   0.0918616300000000    0.0030562400000000    0.3725804100000000 W
   0.0927760600000000    0.3384743000000000    0.3746496900000000 W
   0.0916434700000000    0.6698089800000000    0.3721977800000000 W
   0.4263723700000000    0.0049274400000000    0.3736212600000000 W
   0.4264872100000000    0.3382582800000000    0.3745199400000000 W
   0.4262261200000000    0.6721076800000000    0.3741810100000000 W
   0.7589886300000001    0.0049011200000000    0.3735493100000000 W
   0.7588426000000000    0.3373636900000000    0.3744676100000000 W
   0.7587505300000000    0.6700182500000000    0.3721591400000000 W
   0.1315872600000000    0.0922160900000000    0.6225167600000000 W
   0.1126912100000000    0.3910679300000000    0.6235265500000000 W
   0.1203818100000000    0.7647801700000000    0.6276120200000000 W
   0.4626238000000000    0.1026006800000000    0.6270001800000000 W
   0.4565248700000000    0.3941304900000000    0.6227309300000000 W
   0.4619076000000000    0.7474594700000000    0.6351902300000000 W
   0.8138999400000000    0.1012620600000000    0.6272530700000000 W
   0.7975795700000000    0.4308259200000000    0.6322689400000000 W
   0.8156388700000000    0.7588197100000000    0.6253672000000000 W
   0.1045660500000000    0.0317651900000000    0.4981907100000000 W
   0.1161647900000000    0.3905065800000000    0.5010979100000000 W
   0.1084786300000000    0.7069048100000001    0.4996350500000000 W
   0.4392075100000000    0.0298273300000000    0.5005517700000000 W
   0.4509426300000000    0.3889858200000000    0.5008213400000000 W
   0.4422072700000000    0.7087322300000000    0.5033269600000000 W
   0.7672032700000000    0.0327329700000000    0.5005198400000000 W
   0.7792857200000000    0.3799230400000000    0.5009594900000000 W
   0.7762195300000000    0.7095104300000000    0.4993374500000000 W
   0.2475601300000000    0.3179365600000000    0.6793139600000000 N
   0.2357072100000000    0.6370191600000000    0.6666088400000000 N
   0.2488336100000000    0.9794775300000000    0.6733783600000000 N
   0.5834874799999999    0.3092780200000000    0.6796372200000000 N
   0.5771164400000000    0.6375707700000000    0.6678842800000000 N
   0.5740870800000000    0.9748187200000000    0.6683414400000000 N
   0.9029401300000000    0.3123290400000000    0.6782392500000000 N
   0.9124279900000000    0.6402195000000001    0.6799655400000000 N
   0.9027121100000000    0.9769460200000000    0.6726460200000000 N
   0.1959082700000000    0.2097754800000000    0.3260456500000000 N
   0.1958795500000000    0.5420823500000000    0.3248794100000000 N
   0.1946506500000000    0.8749424500000000    0.3238375400000000 N
   0.5283696000000000    0.2101487400000000    0.3251897900000000 N
   0.5279396500000000    0.5420144099999999    0.3249447500000000 N
   0.5286596600000000    0.8751569400000000    0.3243165100000000 N
   0.8642698100000000    0.2105593300000000    0.3253475900000000 N
   0.8614770899999999    0.5413822900000000    0.3237605400000000 N
   0.8624625299999999    0.8753707400000000    0.3237757100000000 N
   0.0045864300000000    0.1712188700000000    0.5574222500000000 N
   0.0039948400000000    0.5072469300000000    0.5637670900000000 N
   0.0122644500000000    0.8485133800000000    0.5615996100000000 N
   0.3407299800000000    0.1717546800000000    0.5573957800000000 N
   0.3412810500000000    0.5067108400000000    0.5630839399999999 N
   0.3375389200000000    0.8392085700000000    0.5633552600000000 N
   0.6717473500000000    0.1704077700000000    0.5607517400000001 N
   0.6806665400000000    0.5111458300000000    0.5635886400000000 N
   0.6757209900000000    0.8403884400000000    0.5627615900000000 N
   0.2154711400000000    0.2516221700000000    0.4410338300000000 N
   0.2137668000000000    0.5831443100000000    0.4380642100000000 N
   0.2118508300000000    0.9106765100000001    0.4367739000000000 N
   0.5456290400000000    0.2475518500000000    0.4390665500000000 N
   0.5483058300000000    0.5826275500000000    0.4381682700000000 N
   0.5453041400000000    0.9121276300000000    0.4364029000000000 N
   0.8822476900000000    0.2490917200000000    0.4390551200000000 N
   0.8794612200000000    0.5805917200000000    0.4366366900000000 N
   0.8780112700000000    0.9113783300000000    0.4366923700000000 N
   0.2568229900000000    0.3323800200000000    0.7238723900000000 H
