H1 W27 N36
1.0
   8.5378185000000002    0.0000000000000000    0.0314463900000000
  -4.2205377899999998    7.7357082300000002   -0.6490793700000000
   0.0000000000000000    0.0000000000000000   22.9756335599999986
W N H
27 36 1
direct
   0.0969360800000000    0.0092027800000000    0.3738199500000000 W
   0.0969347700000000    0.3428581600000000    0.3741286600000000 W
   0.0965687600000000    0.6762028700000000    0.3748089300000000 W
   0.4293941200000000    0.0088580100000000    0.3739548500000000 W
   0.4296098100000000    0.3415330900000000    0.3734915700000000 W
   0.4292795500000000    0.6745320000000000    0.3727622600000000 W
   0.7623114100000000    0.0076115400000000    0.3728110700000000 W
   0.7631871700000000    0.3429210700000000    0.3740056400000000 W
   0.7625142800000000    0.6742369900000000    0.3728099800000000 W
   0.1276451000000000    0.0979425200000000    0.6258675299999999 W
   0.1261685900000000    0.3940985800000000    0.6254919500000000 W
   0.1267883300000000    0.7456676000000000    0.6354534900000000 W
   0.4795794500000000    0.1021546500000000    0.6281214500000000 W
   0.4647992200000000    0.4237283900000000    0.6280815900000000 W
   0.4867846700000000    0.7645980800000000    0.6260898499999999 W
   0.7987402100000000    0.0883602300000000    0.6220485500000000 W
   0.7762699400000000    0.3946911600000000    0.6256733600000000 W
   0.7853211700000000    0.7631217500000000    0.6264021500000000 W
   0.1120474900000000    0.0394393500000000    0.5007281600000000 W
   0.1199384600000000    0.3917559900000000    0.5009351500000000 W
   0.1126222100000000    0.7114691000000000    0.5036783700000000 W
   0.4419000700000000    0.0381833700000000    0.5007680700000000 W
   0.4482345600000000    0.3808458900000000    0.5007617800000000 W
   0.4443574000000000    0.7093209700000001    0.4997356800000000 W
   0.7785351300000000    0.0449243300000000    0.4985788400000000 W
   0.7847006700000000    0.3898710600000000    0.5006950000000000 W
   0.7796484200000000    0.7110145200000000    0.4997300200000000 W
   0.2492599000000000    0.3105965900000000    0.6827834000000000 N
   0.2452706800000000    0.6386754000000000    0.6677855800000000 N
   0.2415688400000000    0.9748429000000000    0.6680408200000000 N
   0.5665970299999999    0.3102734100000000    0.6800938800000000 N
   0.5708736000000000    0.6367321200000000    0.6771504400000000 N
   0.5685536400000000    0.9780794000000000    0.6738577900000000 N
   0.9162723100000000    0.3226300200000000    0.6744955700000000 N
   0.9031539700000000    0.6397472100000000    0.6684924600000000 N
   0.9173729000000000    0.9793199900000000    0.6738739000000000 N
   0.1981304400000000    0.2135333900000000    0.3249107500000000 N
   0.1989656800000000    0.5469006300000000    0.3250450600000000 N
   0.1993077100000000    0.8799132500000000    0.3250170600000000 N
   0.5344121600000000    0.2133846500000000    0.3248194500000000 N
   0.5326786900000000    0.5459956200000000    0.3238324000000000 N
   0.5333575200000000    0.8795864400000000    0.3241775900000000 N
   0.8665715600000000    0.2137500100000000    0.3256180000000000 N
   0.8668778300000000    0.5468970200000000    0.3248533400000000 N
   0.8657573600000000    0.8797767700000000    0.3243855800000000 N
   0.0076967800000000    0.1767209400000000    0.5589602400000000 N
   0.0095335900000000    0.5064843500000000    0.5635856800000000 N
   0.0086463300000000    0.8445133600000000    0.5635055900000000 N
   0.3441499700000000    0.1730150000000000    0.5610790500000000 N
   0.3482316900000000    0.5132405000000000    0.5627236900000000 N
   0.3450691100000000    0.8413936300000000    0.5625062100000000 N
   0.6763155500000000    0.1773039400000000    0.5602715500000000 N
   0.6774282100000000    0.5141681299999999    0.5629886500000000 N
   0.6809552000000000    0.8510500700000000    0.5606626200000000 N
   0.2167559000000000    0.2519788900000000    0.4386112600000000 N
   0.2175115500000000    0.5863749400000000    0.4384013300000000 N
   0.2156366400000000    0.9162222799999999    0.4379410300000000 N
   0.5510041100000000    0.2516347600000000    0.4382801400000000 N
   0.5489156600000000    0.5822259200000000    0.4365880600000000 N
   0.5494171799999999    0.9160683800000000    0.4370554400000000 N
   0.8860786899999999    0.2566067400000000    0.4398744900000000 N
   0.8833657100000000    0.5861321200000000    0.4381558700000000 N
   0.8832919600000000    0.9173241500000000    0.4374757600000000 N
   0.2579248600000000    0.3202117300000000    0.7272948600000000 H
