H1 W18 N45
1.0
   8.7564020700000000    0.0000000000000000    0.2593228500000000
  -0.0034886100000000    8.6562110099999998    0.0416182200000000
   0.0000000000000000    0.0000000000000000   22.6308834700000006
W N H
18 45 1
direct
   0.1037687600000000    0.0953027200000000    0.6390253200000000 W
   0.1039179600000000    0.4377775600000000    0.6389540700000000 W
   0.1104786400000000    0.7664786900000000    0.6387737500000000 W
   0.4472471400000000    0.0947460800000000    0.6371194900000000 W
   0.4471321900000000    0.4382405800000000    0.6371721400000000 W
   0.4400433200000000    0.7664453200000000    0.6384065799999999 W
   0.7753585800000000    0.1014630100000000    0.6388386200000000 W
   0.7752163700000000    0.4314682600000000    0.6387211200000000 W
   0.7756950200000000    0.7666775900000000    0.6379550899999999 W
   0.1173638400000000    0.1002863300000000    0.4768245500000000 W
   0.1209900500000000    0.4353431900000000    0.4766464500000000 W
   0.1202937600000000    0.7701835200000000    0.4765266100000000 W
   0.4530593100000000    0.1041657100000000    0.4747391400000000 W
   0.4537811900000000    0.4356472400000000    0.4749519300000000 W
   0.4499987300000000    0.7658793300000000    0.4760693600000000 W
   0.7875354600000000    0.1032989900000000    0.4766659600000000 W
   0.7829434300000000    0.4329533700000000    0.4764341800000000 W
   0.7875073500000001    0.7696847200000000    0.4757142300000000 W
   0.1323169100000000    0.1048681700000000    0.3239682000000000 N
   0.1321110500000000    0.4366250200000000    0.3238515000000000 N
   0.1307219000000000    0.7705712600000000    0.3244407200000000 N
   0.4641506600000000    0.1044832600000000    0.3234366900000000 N
   0.4640847700000000    0.4367961200000000    0.3235690200000000 N
   0.4657175600000000    0.7708329100000000    0.3242169100000000 N
   0.7977886300000000    0.1033720800000000    0.3240566500000000 N
   0.7980909800000000    0.4381347300000000    0.3240715400000000 N
   0.7976923299999999    0.7705690500000000    0.3245157400000000 N
   0.1259381200000000    0.1020974500000000    0.3738163200000000 N
   0.1266002800000000    0.4376171500000000    0.3736808600000000 N
   0.1266208500000000    0.7704067800000000    0.3743542500000000 N
   0.4608228500000000    0.1035199000000000    0.3733349300000000 N
   0.4610427900000000    0.4369568100000000    0.3735065300000000 N
   0.4591584700000000    0.7694349000000000    0.3740805700000000 N
   0.7945197899999999    0.1037964900000000    0.3739433300000000 N
   0.7933838600000001    0.4359537800000000    0.3739529700000000 N
   0.7952533100000000    0.7702049200000000    0.3744054100000000 N
   0.1148629800000000    0.1020802900000000    0.5594958100000000 N
   0.1158149800000000    0.4325616800000000    0.5593891700000000 N
   0.1145996700000000    0.7679513900000000    0.5592982500000000 N
   0.4458889900000000    0.1033267500000000    0.5578957100000000 N
   0.4460746100000000    0.4324785200000000    0.5579763599999999 N
   0.4454907300000000    0.7669122600000000    0.5587608900000000 N
   0.7808529200000000    0.1019896400000000    0.5592453500000000 N
   0.7796336500000000    0.4329752700000000    0.5591486600000000 N
   0.7808315700000000    0.7678137200000000    0.5588780300000000 N
   0.2755922700000000    0.2660632300000000    0.6686358500000000 N
   0.2740850900000000    0.5975792700000000    0.6606063900000000 N
   0.2743022900000000    0.9349542500000000    0.6606788600000000 N
   0.6050551500000000    0.2661263300000000    0.6601954100000000 N
   0.6083552100000000    0.6010571600000000    0.6600639400000000 N
   0.6081901199999999    0.9314208899999999    0.6602785400000000 N
   0.9413126200000000    0.2663718700000000    0.6619258800000000 N
   0.9389546300000000    0.6008822700000001    0.6609202300000000 N
   0.9390676800000000    0.9314407800000000    0.6606918500000000 N
   0.2856396200000000    0.2682013900000000    0.4607414400000000 N
   0.2853930000000000    0.6011443600000000    0.4646014900000000 N
   0.2878427000000000    0.9369977300000000    0.4646843600000000 N
   0.6205420200000000    0.2675022100000000    0.4638149100000000 N
   0.6215535500000000    0.6036663200000000    0.4642616200000000 N
   0.6196388700000000    0.9351484900000000    0.4641948400000000 N
   0.9544950800000001    0.2705878800000000    0.4652120800000000 N
   0.9533576300000000    0.6003611700000000    0.4650855600000000 N
   0.9528664200000000    0.9352263000000000    0.4652548500000000 N
   0.2788965600000000    0.2654988900000000    0.7140244700000000 H
