H1 W18 N45
1.0
   8.7564020700000000    0.0000000000000000    0.2593228500000000
  -0.0034886100000000    8.6562110099999998    0.0416182200000000
   0.0000000000000000    0.0000000000000000   22.6308834700000006
W N H
18 45 1
direct
   0.1016756600000000    0.0988396800000000    0.6374460500000000 W
   0.1069386700000000    0.4334260200000000    0.6381119900000000 W
   0.1017815700000000    0.7674606899999999    0.6373244700000000 W
   0.4362201600000000    0.1035571700000000    0.6380807200000000 W
   0.4374861100000000    0.4331924800000000    0.6508365400000000 W
   0.4359471000000000    0.7626396800000000    0.6382618200000000 W
   0.7709634600000000    0.0997588800000000    0.6385637199999999 W
   0.7666973400000000    0.4332487000000000    0.6380646100000000 W
   0.7710280000000000    0.7667190600000000    0.6386035900000000 W
   0.1150421800000000    0.1046740700000000    0.4752765200000000 W
   0.1160582600000000    0.4361681600000000    0.4756613900000000 W
   0.1208643500000000    0.7651629700000000    0.4751425400000000 W
   0.4531356900000000    0.0988440400000000    0.4754955500000000 W
   0.4473680300000000    0.4365087900000000    0.4843894500000000 W
   0.4491017900000000    0.7698627200000000    0.4757698800000000 W
   0.7823692000000000    0.1034503900000000    0.4763752300000000 W
   0.7861871000000000    0.4323142700000000    0.4754520100000000 W
   0.7809430900000000    0.7702322800000000    0.4763325900000000 W
   0.1313720000000000    0.1037308900000000    0.3233684400000000 N
   0.1305781100000000    0.4371886100000000    0.3248916500000000 N
   0.1305456000000000    0.7710235400000000    0.3234960300000000 N
   0.4641744900000000    0.1031515400000000    0.3249790700000000 N
   0.4649542200000000    0.4373357700000000    0.3161443200000000 N
   0.4646063200000000    0.7717816500000000    0.3252059600000000 N
   0.7978323600000000    0.1041067400000000    0.3242301000000000 N
   0.7992185800000000    0.4375898200000000    0.3246038700000000 N
   0.7982018700000000    0.7701805000000000    0.3240000100000000 N
   0.1260155600000000    0.1048579500000000    0.3732340100000000 N
   0.1253333100000000    0.4368064200000000    0.3748366000000000 N
   0.1282260100000000    0.7681608500000000    0.3733827400000000 N
   0.4604698200000000    0.1012001900000000    0.3748514700000000 N
   0.4607732600000000    0.4370131400000000    0.3656270600000000 N
   0.4590437600000000    0.7712249100000000    0.3750969500000000 N
   0.7918948000000000    0.1041319600000000    0.3741245100000000 N
   0.7949615200000000    0.4355902000000000    0.3744820900000000 N
   0.7910525700000000    0.7700911400000000    0.3738366800000000 N
   0.1071836300000000    0.1000245100000000    0.5579823200000000 N
   0.1103825100000000    0.4344007600000000    0.5589513600000000 N
   0.1092002700000000    0.7681022800000000    0.5579292900000000 N
   0.4447282200000000    0.1009642400000000    0.5590668600000001 N
   0.4418162900000000    0.4347292500000000    0.5626548600000000 N
   0.4434088400000000    0.7667217400000000    0.5592175800000000 N
   0.7773984200000000    0.1004770700000000    0.5589690400000000 N
   0.7765469800000000    0.4332423700000000    0.5590676900000000 N
   0.7769655400000000    0.7691914700000000    0.5589464700000000 N
   0.2636664300000000    0.2621338400000000    0.6586901600000000 N
   0.2636960500000000    0.6036249000000000    0.6584160000000000 N
   0.2694057500000000    0.9330905700000000    0.6583350100000001 N
   0.6049668499999999    0.2627919600000000    0.6608943800000000 N
   0.6052674400000000    0.6032651100000000    0.6610985500000000 N
   0.6004371200000000    0.9328328700000000    0.6592829800000000 N
   0.9353508600000000    0.2684257000000000    0.6584501400000000 N
   0.9351027900000000    0.5975844100000000    0.6588027200000000 N
   0.9343560700000000    0.9328479600000000    0.6619204200000000 N
   0.2872315300000000    0.2689448000000000    0.4647065100000000 N
   0.2873012600000000    0.5992332800000000    0.4647102000000000 N
   0.2823123300000000    0.9377500900000000    0.4649819500000000 N
   0.6142333300000000    0.2725106200000000    0.4649032900000000 N
   0.6171079700000000    0.5992178000000000    0.4652281500000000 N
   0.6191477500000000    0.9349364000000000    0.4652408200000000 N
   0.9513564200000000    0.2676424200000000    0.4647864100000000 N
   0.9491135000000001    0.6047938600000000    0.4649108400000000 N
   0.9516139500000000    0.9341467500000000    0.4636138300000000 N
   0.4133202200000000    0.4323229900000000    0.7298460000000000 H
