H1 W18 N45
1.0
   8.7564020700000000    0.0000000000000000    0.2593228500000000
  -0.0034886100000000    8.6562110099999998    0.0416182200000000
   0.0000000000000000    0.0000000000000000   22.6308834700000006
W N H
18 45 1
direct
   0.1041262800000000    0.0991586600000000    0.6385644400000000 W
   0.1089292400000000    0.4332361000000000    0.6384754600000000 W
   0.1041468600000000    0.7672267900000000    0.6385294100000000 W
   0.4388898900000000    0.1035146200000000    0.6386711200000000 W
   0.4377313800000000    0.4329726100000000    0.6499590400000000 W
   0.4387507900000000    0.7628106900000000    0.6386606500000001 W
   0.7734541500000000    0.0990872900000000    0.6384997400000000 W
   0.7685935400000000    0.4331651100000000    0.6384820900000000 W
   0.7734583900000001    0.7672701800000000    0.6385058200000000 W
   0.1198582300000000    0.1028547800000000    0.4763607000000000 W
   0.1158685800000000    0.4364812100000000    0.4759756700000000 W
   0.1210801400000000    0.7665948500000000    0.4763925600000000 W
   0.4529120500000000    0.0985899700000000    0.4762344100000000 W
   0.4511282400000000    0.4352078800000000    0.4835338500000000 W
   0.4503526500000000    0.7719574100000000    0.4762213500000000 W
   0.7821579600000000    0.1040344000000000    0.4763671400000000 W
   0.7874118300000000    0.4341041100000000    0.4759898100000000 W
   0.7833991100000000    0.7677126200000000    0.4763080600000000 W
   0.1310263700000000    0.1038395200000000    0.3241803500000000 N
   0.1310556900000000    0.4372951100000000    0.3248555600000000 N
   0.1309379400000000    0.7709682700000000    0.3242229400000000 N
   0.4646939200000000    0.1038636300000000    0.3249316300000000 N
   0.4654757800000000    0.4375031700000000    0.3182435500000000 N
   0.4648549200000000    0.7708889400000000    0.3249284300000000 N
   0.7987099300000000    0.1037264000000000    0.3242124100000000 N
   0.7985229000000000    0.4374287400000000    0.3248358500000000 N
   0.7986322500000000    0.7709393500000000    0.3241612100000000 N
   0.1279845000000000    0.1038168600000000    0.3740437300000000 N
   0.1248955500000000    0.4368512600000000    0.3747688700000000 N
   0.1281991900000000    0.7693119500000000    0.3741041600000000 N
   0.4604226800000000    0.1009007000000000    0.3747834100000000 N
   0.4607327500000000    0.4367427900000000    0.3676660900000000 N
   0.4599496300000000    0.7724235400000000    0.3747799800000000 N
   0.7922900600000000    0.1040175500000000    0.3740873100000000 N
   0.7954463100000000    0.4364289700000000    0.3747583600000000 N
   0.7925336200000000    0.7694980800000000    0.3740191300000000 N
   0.1108802300000000    0.0999008700000000    0.5590174700000000 N
   0.1117521100000000    0.4343970000000000    0.5593402000000000 N
   0.1111299100000000    0.7682593200000000    0.5590209300000000 N
   0.4452155800000000    0.1009295900000000    0.5595777199999999 N
   0.4449008400000000    0.4341543200000000    0.5619837500000000 N
   0.4447585800000000    0.7674351500000000    0.5595660800000000 N
   0.7790589100000000    0.1001240000000000    0.5590001300000000 N
   0.7783322900000000    0.4339943800000000    0.5593366100000000 N
   0.7793163000000000    0.7685654600000000    0.5589708700000000 N
   0.2666702900000000    0.2625642800000000    0.6598397600000000 N
   0.2667469500000000    0.6031686400000000    0.6596960500000000 N
   0.2716886800000000    0.9329662200000000    0.6595802800000000 N
   0.6076250700000000    0.2626505000000000    0.6595985900000000 N
   0.6076720300000000    0.6032672100000001    0.6596820799999999 N
   0.6026271300000000    0.9328200900000000    0.6595296200000000 N
   0.9372331699999999    0.2681986900000000    0.6591658300000000 N
   0.9371046200000001    0.5976302700000000    0.6591477800000000 N
   0.9369763300000000    0.9328657299999999    0.6625414900000000 N
   0.2880724700000000    0.2703590500000000    0.4648498300000000 N
   0.2888912000000000    0.5994838900000000    0.4648081300000000 N
   0.2839640700000000    0.9362898400000000    0.4656200300000000 N
   0.6161800600000000    0.2713419400000000    0.4647792000000000 N
   0.6170228000000000    0.6005298600000000    0.4648054300000000 N
   0.6209697500000000    0.9345590000000000    0.4656240000000000 N
   0.9531730800000000    0.2655881000000000    0.4653008300000000 N
   0.9518361900000000    0.6052614400000000    0.4652981000000000 N
   0.9525830199999999    0.9354514100000000    0.4643642300000000 N
   0.4327968200000000    0.4321837000000000    0.7292173700000000 H
