H1 W18 N45
1.0
   8.7564020700000000    0.0000000000000000    0.2593228500000000
  -0.0034886100000000    8.6562110099999998    0.0416182200000000
   0.0000000000000000    0.0000000000000000   22.6308834700000006
W N H
18 45 1
direct
   0.1023412600000000    0.1016494100000000    0.6386220300000000 W
   0.1020875400000000    0.4314564000000000    0.6387930200000000 W
   0.1021056000000000    0.7664117000000000    0.6378805600000000 W
   0.4307550200000000    0.0949457100000000    0.6378346300000000 W
   0.4306210000000000    0.4382020300000000    0.6377516500000000 W
   0.4376493500000000    0.7666567500000000    0.6381755600000000 W
   0.7736408400000000    0.0951228400000000    0.6388647900000000 W
   0.7737713600000000    0.4377050200000000    0.6389386300000000 W
   0.7670340900000000    0.7665411900000000    0.6387973000000000 W
   0.1206964400000000    0.1042903900000000    0.4762724900000000 W
   0.1153338400000000    0.4343384500000000    0.4765647300000000 W
   0.1157304900000000    0.7671093400000000    0.4756179600000000 W
   0.4496307400000000    0.1012285600000000    0.4756484700000000 W
   0.4500059400000000    0.4330004100000000    0.4754270900000000 W
   0.4530679400000000    0.7720808800000000    0.4758177700000000 W
   0.7812406200000001    0.1018555100000000    0.4765667900000000 W
   0.7857828600000000    0.4369056200000000    0.4766988600000000 W
   0.7825934000000000    0.7670219600000000    0.4765200600000000 W
   0.1311324100000000    0.1031207000000000    0.3239532700000000 N
   0.1315671500000000    0.4380546000000000    0.3239854700000000 N
   0.1317244800000000    0.7708798100000001    0.3244905800000000 N
   0.4653254600000000    0.1046896900000000    0.3234171800000000 N
   0.4653577000000000    0.4368668200000000    0.3232137200000000 N
   0.4635341600000000    0.7704180100000000    0.3241213800000000 N
   0.7972850800000000    0.1048562500000000    0.3235958000000000 N
   0.7968735800000000    0.4363843800000000    0.3237623900000000 N
   0.7986732800000000    0.7707969600000000    0.3244388900000000 N
   0.1271629300000000    0.1040515900000000    0.3738299000000000 N
   0.1255719000000000    0.4363625800000000    0.3738671900000000 N
   0.1248643500000000    0.7695387000000000    0.3743517800000000 N
   0.4593342600000000    0.1026012100000000    0.3732979800000000 N
   0.4594461800000000    0.4366144100000000    0.3730471400000000 N
   0.4612184600000000    0.7708552100000000    0.3740324500000000 N
   0.7936356900000000    0.1022020700000000    0.3734759600000000 N
   0.7947755200000000    0.4380763900000000    0.3736793500000000 N
   0.7936471000000000    0.7694284000000000    0.3743536400000000 N
   0.1106752300000000    0.1021682400000000    0.5590364600000000 N
   0.1089401300000000    0.4332357100000000    0.5591869200000000 N
   0.1092773400000000    0.7670811100000000    0.5587923600000000 N
   0.4442438900000000    0.1026703900000000    0.5584980000000000 N
   0.4443250700000000    0.4313861000000000    0.5583754200000000 N
   0.4444977800000000    0.7685807700000000    0.5585853400000000 N
   0.7737309900000000    0.1025104400000000    0.5592942100000000 N
   0.7753124500000000    0.4330426700000000    0.5594027700000000 N
   0.7751987700000000    0.7670344400000000    0.5592491300000000 N
   0.2688251500000000    0.2663609600000000    0.6605475100000000 N
   0.2660393700000000    0.6011913600000000    0.6601981400000000 N
   0.2659022100000000    0.9313266300000000    0.6599383100000000 N
   0.5984503799999999    0.2661372600000000    0.6691541600000001 N
   0.5999006300000000    0.5976482500000000    0.6607080100000000 N
   0.6001760500000000    0.9347163900000000    0.6606008600000000 N
   0.9326140600000000    0.2659405400000000    0.6617450300000000 N
   0.9352312100000000    0.6011269800000000    0.6605882300000000 N
   0.9353375700000000    0.9315001200000000    0.6609580000000000 N
   0.2849411600000000    0.2701081300000000    0.4639310700000000 N
   0.2859476000000000    0.6021674600000000    0.4641782300000000 N
   0.2833190500000000    0.9340127400000000    0.4642156000000000 N
   0.6192862300000000    0.2697097200000000    0.4601860400000000 N
   0.6164234100000000    0.6003437600000000    0.4648223000000000 N
   0.6193979700000000    0.9363270200000000    0.4647042600000000 N
   0.9503906300000000    0.2663792900000000    0.4651921500000000 N
   0.9517629100000000    0.6026253600000000    0.4652850000000000 N
   0.9514635500000000    0.9373678400000000    0.4650290100000000 N
   0.5918190600000000    0.2655836700000000    0.7145925400000001 H
