H1 W18 N45
1.0
   8.7564020700000000    0.0000000000000000    0.2593228500000000
  -0.0034886100000000    8.6562110099999998    0.0416182200000000
   0.0000000000000000    0.0000000000000000   22.6308834700000006
W N H
18 45 1
direct
   0.0985403800000000    0.0975030600000000    0.6382180000000000 W
   0.0979588200000000    0.4411069600000000    0.6373370600000000 W
   0.1050385000000000    0.7688976500000000    0.6386747699999999 W
   0.4408738000000000    0.0978649500000000    0.6393423300000000 W
   0.4412667000000000    0.4402233400000000    0.6384324500000000 W
   0.4345112400000000    0.7686872400000000    0.6389291600000000 W
   0.7696942600000000    0.1037010100000000    0.6385894000000000 W
   0.7693324100000000    0.4339375600000000    0.6386950000000000 W
   0.7698218500000000    0.7690711700000000    0.6379573500000000 W
   0.1155214900000000    0.1011519400000000    0.4759685400000000 W
   0.1206789900000000    0.4365928800000000    0.4750714600000000 W
   0.1184705700000000    0.7707200000000000    0.4763794700000000 W
   0.4515775900000000    0.1048479300000000    0.4770491600000000 W
   0.4512218800000000    0.4366973700000000    0.4762710300000000 W
   0.4488740800000000    0.7656725700000000    0.4766473200000000 W
   0.7858488700000000    0.1032955200000000    0.4763267500000000 W
   0.7801891800000000    0.4338626000000000    0.4763553100000000 W
   0.7857796600000000    0.7713780300000000    0.4757784000000000 W
   0.1321807700000000    0.1046025600000000    0.3240325900000000 N
   0.1315284900000000    0.4367811300000000    0.3230175900000000 N
   0.1307642300000000    0.7707173700000000    0.3244816700000000 N
   0.4638639100000000    0.1045154500000000    0.3234635000000000 N
   0.4640549200000000    0.4365321900000000    0.3240783700000000 N
   0.4652909500000000    0.7708506300000000    0.3241900000000000 N
   0.7979227700000000    0.1037137900000000    0.3246071700000000 N
   0.7983341200000000    0.4381643700000000    0.3241736400000000 N
   0.7976584100000000    0.7703382700000000    0.3245393600000000 N
   0.1253237900000000    0.1022161700000000    0.3739182000000000 N
   0.1277039100000000    0.4376086500000000    0.3728534300000000 N
   0.1266212700000000    0.7708853600000000    0.3743758600000000 N
   0.4612241200000000    0.1033439700000000    0.3732968400000000 N
   0.4606382600000000    0.4374856600000000    0.3739451400000000 N
   0.4596934100000000    0.7687980900000000    0.3740390400000000 N
   0.7940725800000000    0.1033538300000000    0.3744949300000000 N
   0.7915309000000000    0.4358946800000000    0.3739752100000000 N
   0.7938065800000000    0.7713380300000000    0.3743679100000000 N
   0.1114843600000000    0.1035641200000000    0.5588206300000000 N
   0.1131834200000000    0.4344224300000000    0.5580631300000000 N
   0.1113761100000000    0.7694340600000000    0.5590887900000000 N
   0.4419269000000000    0.1050747800000000    0.5596277100000000 N
   0.4419751500000000    0.4341423000000000    0.5590455600000001 N
   0.4424549200000000    0.7675549100000000    0.5593836700000000 N
   0.7773726100000000    0.1031174100000000    0.5591660899999999 N
   0.7752891200000001    0.4347865400000000    0.5590711700000000 N
   0.7775112700000000    0.7695292700000000    0.5588874900000000 N
   0.2656176800000000    0.2703102000000000    0.6691651300000000 N
   0.2677207000000000    0.5999252900000001    0.6604939200000000 N
   0.2679337600000000    0.9369744600000000    0.6614670000000000 N
   0.6000465600000000    0.2686280200000000    0.6613307300000000 N
   0.6025869200000000    0.6035269400000000    0.6607460400000000 N
   0.6024389999999999    0.9338025400000000    0.6608937800000000 N
   0.9363770000000000    0.2690315700000000    0.6605841300000000 N
   0.9330940700000000    0.6035680800000000    0.6604979700000000 N
   0.9335148500000000    0.9339382100000000    0.6598223000000000 N
   0.2855509400000000    0.2680373500000000    0.4603695900000000 N
   0.2847077800000000    0.6027068300000000    0.4645123000000000 N
   0.2875417400000000    0.9374318200000000    0.4648830900000000 N
   0.6176538700000000    0.2682161200000000    0.4651575900000000 N
   0.6196446100000000    0.6042810600000000    0.4647042000000000 N
   0.6164475000000000    0.9357692300000000    0.4649902200000000 N
   0.9525745799999999    0.2722248200000000    0.4647621300000000 N
   0.9512133200000000    0.6011330100000000    0.4641903200000000 N
   0.9516404900000000    0.9352984900000000    0.4652829400000000 N
   0.2567817700000000    0.2751077300000000    0.7146635000000000 H
