W6 N2
1.0
   4.1455893000000001    0.0000000000000000    0.0208524600000000
  -0.0009722300000000    2.8462890800000000   -0.0250675600000000
   0.0000000000000000    0.0000000000000000   22.1021973100000011
W N
6 2
direct
   0.7509400300000000    0.7257378799999999    0.3512628300000000 W
   0.7476152400000000    0.5471096600000001    0.4694147100000000 W
   0.7445215900000000    0.2444499300000000    0.5887706100000000 W
   0.2429372100000000    0.7189489000000000    0.6487389099999999 W
   0.2462246800000000    0.8975494500000000    0.5305826400000000 W
   0.2493383400000000    0.2001843900000000    0.4112368700000000 W
   0.2512412100000000    0.7025921400000000    0.3399992900000000 N
   0.7426887200000000    0.7421106600000000    0.6599941499999999 N
